SYSTEM = TiSe2

#k-grid
 KSPACING = 0.5      #0.2: fine 0.15: really fine

#start parameters 
 NWRITE  = 1
 PREC    = Accurate   #precision mode
# ISPIN   = 2
# ICHARG  = 1         #Check CHGCAR file
# MAGMOM  = 41*0      #not neede with WAVECAR or CHGCAR 
# LREAL   = Auto      #Set for large unit cells

#electronic optimization
 ENCUT   = 450        #cutoff energy
 EDIFF   = 1.0e-7     #breakout condition for SC loop
 NELMIN  = 6          #minimum number of electronic SCF steps
 NELM    = 100
# AMIN    = 0.01      #provide for slab
 ALGO    = Normal

#ionic relaxation
 IBRION  = 2          #relaxation method
 ISIF    = 3          #relax dof
 NSW     = 30        #maximum number of ionic steps (or minimum for IBRION=-1)
 EDIFFG  = -1.0e-3    #break condition for ionic relaxation
# POTIM   = 0.5       #STEP size (0.5 default for relaxation)
# NFREE   = 20        #MUST BE PROVIDED for BRION=1, mute for BRION=2
# ISYM    = 0         #set to 0 for charge projection

#DOS-related
 ISMEAR  = 2         #determines how the partial occupancies are set for each orbial 
 SIGMA   = 0.010

#phonon dispersion
# LPHON_DISPERSION = true   # with QPOINTS

#Write flags
# LORBIT  = 11
 LWAVE   = T
# LCHARG  = T
# LVHAR   = F

#Exchange correlation treatment
 GGA     = PS
#METAGGA = SCAN  
#LASPH = .TRUE
#ALGO = ALL
#LDIAG = .FALSE.

#VdW interaction
# IVDW    = 11
# GGA       = MK 
#PARAM1    = 0.1234 
#PARAM2    = 1.0
#AGGAC     = 0.0
#LUSE_VDW  = .TRUE.
#LASPH     = .TRUE.


#performance optimization
 NCORE = 4         #set to 1 for Hessians
# KPAR  = 8        #prioritized, NPAR*NCORE = # of cores


