generated by phonopy                    
   1.00000000000000     
    10.8574396075108854   -0.0005468820852782   -0.0000000000000000
    -5.4291934175341678    9.4036388432944964   -0.0000000000000000
     0.0000000000000000    0.0000000000000000   18.7603043866245400
  Cs              V               Sb            
     8    24    40
Direct
     0.0000000000000000    0.0000000000000000    0.9988547587246567
     0.5000000000000000    0.0000000000000000    0.0000000000000000
     0.0000000000000000    0.5000000000000000    0.0011452412753434
     0.5000000000000000    0.5000000000000000    0.0000000000000000
     0.0000000000000000    0.0000000000000000    0.5011452412753433
     0.5000000000000000    0.0000000000000000    0.5000000000000000
     0.0000000000000000    0.5000000000000000    0.4988547587246565
     0.5000000000000000    0.5000000000000000    0.5000000000000000
     0.2543274833199183    0.0086883844952505    0.2500000000000000
     0.7456725166800816    0.9913116155047496    0.2500000000000000
     0.2460017581579735    0.5000902635862015    0.2500000000000000
     0.7539982418420264    0.4999097364137985    0.2500000000000000
     0.2460017581579735    0.0000902635862014    0.7500000000000000
     0.7539982418420264    0.9999097364137985    0.7500000000000000
     0.2543274833199183    0.5086883844952504    0.7500000000000000
     0.7456725166800816    0.4913116155047495    0.7500000000000000
     0.0000000000000000    0.2540454702789439    0.2500000000000000
     0.4912706034344412    0.2456353017110993    0.2500000000000000
     0.0000000000000000    0.7459545297210559    0.2500000000000000
     0.5087293965655589    0.7543646982889007    0.2500000000000000
     0.0000000000000000    0.2459545297210562    0.7500000000000000
     0.5087293965655589    0.2543646982889079    0.7500000000000000
     0.0000000000000000    0.7540454702789441    0.7500000000000000
     0.4912706034344412    0.7456353017110993    0.7500000000000000
     0.2543274833198402    0.2456390988279221    0.2500000000000000
     0.7539982418783990    0.2540885054132002    0.2500000000000000
     0.2460017581216009    0.7459114945868000    0.2500000000000000
     0.7456725166801598    0.7543609011720779    0.2500000000000000
     0.2460017581216009    0.2459114945867999    0.7500000000000000
     0.7456725166801598    0.2543609011720778    0.7500000000000000
     0.2543274833198402    0.7456390988279221    0.7500000000000000
     0.7539982418783990    0.7540885054132000    0.7500000000000000
     0.3332816445141950    0.1666408222578720    0.3721240230563415
     0.8327616762436740    0.1654818449142559    0.3688837923111528
     0.3345400360185223    0.6672700180108740    0.3688867086977654
     0.8327616762419900    0.6672798313261925    0.3688837923111528
     0.3345400360185223    0.1672700180108741    0.8688867086977651
     0.8327616762419900    0.1672798313261924    0.8688837923111458
     0.3332816445141950    0.6666408222578718    0.8721240230563414
     0.8327616762436740    0.6654818449142559    0.8688837923111458
     0.1672383237580099    0.3327201686738077    0.3688837923111528
     0.6654599639814776    0.3327299819891258    0.3688867086977654
     0.1672383237563259    0.8345181550857441    0.3688837923111528
     0.6667183554858048    0.8333591777421282    0.3721240230563415
     0.1672383237563259    0.3345181550857442    0.8688837923111458
     0.6667183554858048    0.3333591777421279    0.8721240230563414
     0.1672383237580099    0.8327201686738075    0.8688837923111458
     0.6654599639814776    0.8327299819891260    0.8688867086977651
     0.3332816445141950    0.1666408222578720    0.1278759619436608
     0.8327616762436740    0.1654818449142559    0.1311161926888424
     0.3345400360185223    0.6672700180108740    0.1311132763022301
     0.8327616762419900    0.6672798313261925    0.1311161926888424
     0.3345400360185223    0.1672700180108741    0.6311132763022301
     0.8327616762419900    0.1672798313261924    0.6311161926888423
     0.3332816445141950    0.6666408222578718    0.6278759619436609
     0.8327616762436740    0.6654818449142559    0.6311161926888423
     0.1672383237580099    0.3327201686738077    0.1311161926888424
     0.6654599639814776    0.3327299819891258    0.1311132763022301
     0.1672383237563259    0.8345181550857441    0.1311161926888424
     0.6667183554858048    0.8333591777421282    0.1278759619436608
     0.1672383237563259    0.3345181550857442    0.6311161926888423
     0.6667183554858048    0.3333591777421279    0.6278759619436609
     0.1672383237580099    0.8327201686738075    0.6311161926888423
     0.6654599639814776    0.8327299819891260    0.6311132763022301
     0.0000000000000000    0.0000000000000000    0.2500000000000000
     0.5000000000000000    0.0000000000000000    0.2500000000000000
     0.0000000000000000    0.5000000000000000    0.2500000000000000
     0.5000000000000000    0.5000000000000000    0.2500000000000000
     0.0000000000000000    0.0000000000000000    0.7500000000000000
     0.5000000000000000    0.0000000000000000    0.7500000000000000
     0.0000000000000000    0.5000000000000000    0.7500000000000000
     0.5000000000000000    0.5000000000000000    0.7500000000000000
 
  0.00000000E+00  0.00000000E+00  0.00000000E+00
  0.00000000E+00  0.00000000E+00  0.00000000E+00
  0.00000000E+00  0.00000000E+00  0.00000000E+00
  0.00000000E+00  0.00000000E+00  0.00000000E+00
  0.00000000E+00  0.00000000E+00  0.00000000E+00
  0.00000000E+00  0.00000000E+00  0.00000000E+00
  0.00000000E+00  0.00000000E+00  0.00000000E+00
  0.00000000E+00  0.00000000E+00  0.00000000E+00
  0.00000000E+00  0.00000000E+00  0.00000000E+00
  0.00000000E+00  0.00000000E+00  0.00000000E+00
  0.00000000E+00  0.00000000E+00  0.00000000E+00
  0.00000000E+00  0.00000000E+00  0.00000000E+00
  0.00000000E+00  0.00000000E+00  0.00000000E+00
  0.00000000E+00  0.00000000E+00  0.00000000E+00
  0.00000000E+00  0.00000000E+00  0.00000000E+00
  0.00000000E+00  0.00000000E+00  0.00000000E+00
  0.00000000E+00  0.00000000E+00  0.00000000E+00
  0.00000000E+00  0.00000000E+00  0.00000000E+00
  0.00000000E+00  0.00000000E+00  0.00000000E+00
  0.00000000E+00  0.00000000E+00  0.00000000E+00
  0.00000000E+00  0.00000000E+00  0.00000000E+00
  0.00000000E+00  0.00000000E+00  0.00000000E+00
  0.00000000E+00  0.00000000E+00  0.00000000E+00
  0.00000000E+00  0.00000000E+00  0.00000000E+00
  0.00000000E+00  0.00000000E+00  0.00000000E+00
  0.00000000E+00  0.00000000E+00  0.00000000E+00
  0.00000000E+00  0.00000000E+00  0.00000000E+00
  0.00000000E+00  0.00000000E+00  0.00000000E+00
  0.00000000E+00  0.00000000E+00  0.00000000E+00
  0.00000000E+00  0.00000000E+00  0.00000000E+00
  0.00000000E+00  0.00000000E+00  0.00000000E+00
  0.00000000E+00  0.00000000E+00  0.00000000E+00
  0.00000000E+00  0.00000000E+00  0.00000000E+00
  0.00000000E+00  0.00000000E+00  0.00000000E+00
  0.00000000E+00  0.00000000E+00  0.00000000E+00
  0.00000000E+00  0.00000000E+00  0.00000000E+00
  0.00000000E+00  0.00000000E+00  0.00000000E+00
  0.00000000E+00  0.00000000E+00  0.00000000E+00
  0.00000000E+00  0.00000000E+00  0.00000000E+00
  0.00000000E+00  0.00000000E+00  0.00000000E+00
  0.00000000E+00  0.00000000E+00  0.00000000E+00
  0.00000000E+00  0.00000000E+00  0.00000000E+00
  0.00000000E+00  0.00000000E+00  0.00000000E+00
  0.00000000E+00  0.00000000E+00  0.00000000E+00
  0.00000000E+00  0.00000000E+00  0.00000000E+00
  0.00000000E+00  0.00000000E+00  0.00000000E+00
  0.00000000E+00  0.00000000E+00  0.00000000E+00
  0.00000000E+00  0.00000000E+00  0.00000000E+00
  0.00000000E+00  0.00000000E+00  0.00000000E+00
  0.00000000E+00  0.00000000E+00  0.00000000E+00
  0.00000000E+00  0.00000000E+00  0.00000000E+00
  0.00000000E+00  0.00000000E+00  0.00000000E+00
  0.00000000E+00  0.00000000E+00  0.00000000E+00
  0.00000000E+00  0.00000000E+00  0.00000000E+00
  0.00000000E+00  0.00000000E+00  0.00000000E+00
  0.00000000E+00  0.00000000E+00  0.00000000E+00
  0.00000000E+00  0.00000000E+00  0.00000000E+00
  0.00000000E+00  0.00000000E+00  0.00000000E+00
  0.00000000E+00  0.00000000E+00  0.00000000E+00
  0.00000000E+00  0.00000000E+00  0.00000000E+00
  0.00000000E+00  0.00000000E+00  0.00000000E+00
  0.00000000E+00  0.00000000E+00  0.00000000E+00
  0.00000000E+00  0.00000000E+00  0.00000000E+00
  0.00000000E+00  0.00000000E+00  0.00000000E+00
  0.00000000E+00  0.00000000E+00  0.00000000E+00
  0.00000000E+00  0.00000000E+00  0.00000000E+00
  0.00000000E+00  0.00000000E+00  0.00000000E+00
  0.00000000E+00  0.00000000E+00  0.00000000E+00
  0.00000000E+00  0.00000000E+00  0.00000000E+00
  0.00000000E+00  0.00000000E+00  0.00000000E+00
  0.00000000E+00  0.00000000E+00  0.00000000E+00
  0.00000000E+00  0.00000000E+00  0.00000000E+00
