BEGIN_BLOCK_DATAGRID_3D
  ScalarField
  BEGIN_DATAGRID_3D_ScalarField
    33 33 33
    0.0 0.0 0.0
    2.8630399984309953254 0.0000000000000000000 0.0000000000000000000
    0.0000000000000000000 2.8630399984309953254 0.0000000000000000000
    0.0000000000000000000 0.0000000000000000000 2.8630399984309953254
    0.0000000000000000000     0.0000000000000000000     0.0000000000000000000     0.0000000000000000000     0.0000000000000000000     0.0000000000000000000     0.0000000000000000000     0.0000000000000000000     -0.0000000000000000000     -0.0000000000000000000     -0.0000000000000000000     -0.0000000000000000000     -0.0000000000000000000     -0.0000000000000000000     0.0000000000000000000     -0.0000000000000000000     0.0000000000000000000     0.0000000000000000000     -0.0000000000000000000     -0.0000000000000000000     -0.0000000000000000000     -0.0000000000000000000     -0.0000000000000000000     -0.0000000000000000000     -0.0000000000000000000     0.0000000000000000000     0.0000000000000000000     0.0000000000000000000     0.0000000000000000000     0.0000000000000000000     0.0000000000000000000     0.0000000000000000000     0.0000000000000000000 
    0.0000000000040349037     0.0000000000040346404     0.0000000000039801513     0.0000000000037417978     0.0000000000032000205     0.0000000000023456221     0.0000000000013202655     0.0000000000003505688     -0.0000000000003777785     -0.0000000000008011458     -0.0000000000009626677     -0.0000000000009534274     -0.0000000000009193814     -0.0000000000008985233     -0.0000000000008882191     -0.0000000000008835410     -0.0000000000008821165     -0.0000000000008835410     -0.0000000000008882191     -0.0000000000008985233     -0.0000000000009193814     -0.0000000000009534274     -0.0000000000009626677     -0.0000000000008011458     -0.0000000000003777785     0.0000000000003505688     0.0000000000013202655     0.0000000000023456221     0.0000000000032000205     0.0000000000037417978     0.0000000000039801513     0.0000000000040346404     0.0000000000040349037 
    0.0000000000074734851     0.0000000000074336452     0.0000000000072272245     0.0000000000066494866     0.0000000000055270854     0.0000000000038839312     0.0000000000019964207     0.0000000000002676624     -0.0000000000009899549     -0.0000000000016848238     -0.0000000000019092496     -0.0000000000018477792     -0.0000000000017710409     -0.0000000000017267266     -0.0000000000017064216     -0.0000000000016983283     -0.0000000000016961310     -0.0000000000016983283     -0.0000000000017064216     -0.0000000000017267266     -0.0000000000017710409     -0.0000000000018477792     -0.0000000000019092496     -0.0000000000016848238     -0.0000000000009899549     0.0000000000002676624     0.0000000000019964207     0.0000000000038839312     0.0000000000055270854     0.0000000000066494866     0.0000000000072272245     0.0000000000074336452     0.0000000000074734851 
    0.0000000000097723419     0.0000000000096326877     0.0000000000091295955     0.0000000000080765891     0.0000000000063535322     0.0000000000040782163     0.0000000000016379806     -0.0000000000004786654     -0.0000000000019304745     -0.0000000000026513012     -0.0000000000027859760     -0.0000000000026255126     -0.0000000000024978863     -0.0000000000024282508     -0.0000000000023987050     -0.0000000000023887754     -0.0000000000023865920     -0.0000000000023887754     -0.0000000000023987050     -0.0000000000024282508     -0.0000000000024978863     -0.0000000000026255126     -0.0000000000027859760     -0.0000000000026513012     -0.0000000000019304745     -0.0000000000004786654     0.0000000000016379806     0.0000000000040782163     0.0000000000063535322     0.0000000000080765891     0.0000000000091295955     0.0000000000096326877     0.0000000000097723419 
    0.0000000000105168640     0.0000000000102314105     0.0000000000093320197     0.0000000000077461145     0.0000000000055067378     0.0000000000028667943     0.0000000000002766431     -0.0000000000017968408     -0.0000000000030826592     -0.0000000000035839806     -0.0000000000034910739     -0.0000000000032350286     -0.0000000000030600435     -0.0000000000029681211     -0.0000000000029309011     -0.0000000000029200088     -0.0000000000029181794     -0.0000000000029200088     -0.0000000000029309011     -0.0000000000029681211     -0.0000000000030600435     -0.0000000000032350286     -0.0000000000034910739     -0.0000000000035839806     -0.0000000000030826593     -0.0000000000017968408     0.0000000000002766431     0.0000000000028667943     0.0000000000055067378     0.0000000000077461145     0.0000000000093320197     0.0000000000102314105     0.0000000000105168640 
    0.0000000000095675616     0.0000000000091403454     0.0000000000078790452     0.0000000000058758067     0.0000000000033567752     0.0000000000007012504     -0.0000000000016409058     -0.0000000000033092366     -0.0000000000041627294     -0.0000000000042868135     -0.0000000000039537421     -0.0000000000036392442     -0.0000000000034364970     -0.0000000000033317962     -0.0000000000032895293     -0.0000000000032775230     -0.0000000000032757265     -0.0000000000032775230     -0.0000000000032895293     -0.0000000000033317962     -0.0000000000034364970     -0.0000000000036392442     -0.0000000000039537421     -0.0000000000042868135     -0.0000000000041627294     -0.0000000000033092366     -0.0000000000016409058     0.0000000000007012504     0.0000000000033567752     0.0000000000058758067     0.0000000000078790452     0.0000000000091403454     0.0000000000095675616 
    0.0000000000072347538     0.0000000000067281951     0.0000000000052869352     0.0000000000031474552     0.0000000000006870879     -0.0000000000016472174     -0.0000000000034621642     -0.0000000000045354738     -0.0000000000048567066     -0.0000000000045788841     -0.0000000000041506934     -0.0000000000038254307     -0.0000000000036237170     -0.0000000000035193251     -0.0000000000034753079     -0.0000000000034614394     -0.0000000000034589375     -0.0000000000034614394     -0.0000000000034753079     -0.0000000000035193251     -0.0000000000036237170     -0.0000000000038254307     -0.0000000000041506934     -0.0000000000045788841     -0.0000000000048567066     -0.0000000000045354738     -0.0000000000034621642     -0.0000000000016472174     0.0000000000006870879     0.0000000000031474552     0.0000000000052869352     0.0000000000067281951     0.0000000000072347538 
    0.0000000000042854328     0.0000000000037895888     0.0000000000024113394     0.0000000000004578181     -0.0000000000016372286     -0.0000000000034364646     -0.0000000000046313951     -0.0000000000051156754     -0.0000000000049649601     -0.0000000000045070196     -0.0000000000040997930     -0.0000000000038092525     -0.0000000000036330519     -0.0000000000035398457     -0.0000000000034969878     -0.0000000000034806973     -0.0000000000034768552     -0.0000000000034806973     -0.0000000000034969878     -0.0000000000035398457     -0.0000000000036330519     -0.0000000000038092525     -0.0000000000040997930     -0.0000000000045070196     -0.0000000000049649601     -0.0000000000051156754     -0.0000000000046313951     -0.0000000000034364646     -0.0000000000016372286     0.0000000000004578181     0.0000000000024113394     0.0000000000037895888     0.0000000000042854328 
    0.0000000000016437481     0.0000000000012298451     0.0000000000000976193     -0.0000000000014542365     -0.0000000000030268330     -0.0000000000042504956     -0.0000000000049000175     -0.0000000000049368352     -0.0000000000045908321     -0.0000000000041937890     -0.0000000000038597089     -0.0000000000036276976     -0.0000000000034869947     -0.0000000000034092738     -0.0000000000033693293     -0.0000000000033510268     -0.0000000000033458296     -0.0000000000033510268     -0.0000000000033693293     -0.0000000000034092738     -0.0000000000034869947     -0.0000000000036276976     -0.0000000000038597089     -0.0000000000041937890     -0.0000000000045908321     -0.0000000000049368352     -0.0000000000049000175     -0.0000000000042504956     -0.0000000000030268330     -0.0000000000014542365     0.0000000000000976193     0.0000000000012298451     0.0000000000016437481 
    -0.0000000000000444012     -0.0000000000003495749     -0.0000000000011741169     -0.0000000000022743258     -0.0000000000033350133     -0.0000000000040763417     -0.0000000000043450344     -0.0000000000042717205     -0.0000000000040293251     -0.0000000000037439409     -0.0000000000034986555     -0.0000000000033240115     -0.0000000000032143455     -0.0000000000031503206     -0.0000000000031143796     -0.0000000000030959369     -0.0000000000030902178     -0.0000000000030959369     -0.0000000000031143796     -0.0000000000031503206     -0.0000000000032143455     -0.0000000000033240115     -0.0000000000034986555     -0.0000000000037439409     -0.0000000000040293251     -0.0000000000042717205     -0.0000000000043450344     -0.0000000000040763417     -0.0000000000033350133     -0.0000000000022743258     -0.0000000000011741169     -0.0000000000003495749     -0.0000000000000444012 
    -0.0000000000006394303     -0.0000000000008461634     -0.0000000000013981504     -0.0000000000021158899     -0.0000000000027756194     -0.0000000000032493155     -0.0000000000034912243     -0.0000000000035202710     -0.0000000000034076550     -0.0000000000032354772     -0.0000000000030667915     -0.0000000000029345605     -0.0000000000028456425     -0.0000000000027919685     -0.0000000000027617733     -0.0000000000027463643     -0.0000000000027415814     -0.0000000000027463643     -0.0000000000027617733     -0.0000000000027919685     -0.0000000000028456425     -0.0000000000029345605     -0.0000000000030667915     -0.0000000000032354772     -0.0000000000034076550     -0.0000000000035202710     -0.0000000000034912243     -0.0000000000032493155     -0.0000000000027756194     -0.0000000000021158899     -0.0000000000013981504     -0.0000000000008461634     -0.0000000000006394303 
    -0.0000000000004294096     -0.0000000000005710443     -0.0000000000009532726     -0.0000000000014678314     -0.0000000000019870887     -0.0000000000024089981     -0.0000000000026804489     -0.0000000000027969464     -0.0000000000027886631     -0.0000000000027031217     -0.0000000000025893646     -0.0000000000024852782     -0.0000000000024103520     -0.0000000000023663264     -0.0000000000023447069     -0.0000000000023357237     -0.0000000000023333374     -0.0000000000023357237     -0.0000000000023447069     -0.0000000000023663264     -0.0000000000024103520     -0.0000000000024852782     -0.0000000000025893646     -0.0000000000027031217     -0.0000000000027886631     -0.0000000000027969464     -0.0000000000026804489     -0.0000000000024089981     -0.0000000000019870887     -0.0000000000014678314     -0.0000000000009532726     -0.0000000000005710443     -0.0000000000004294096 
    -0.0000000000001341700     -0.0000000000002418820     -0.0000000000005336537     -0.0000000000009316846     -0.0000000000013472971     -0.0000000000017101854     -0.0000000000019784200     -0.0000000000021355384     -0.0000000000021863892     -0.0000000000021548817     -0.0000000000020785606     -0.0000000000019965442     -0.0000000000019355798     -0.0000000000019033199     -0.0000000000018926783     -0.0000000000018919769     -0.0000000000018926988     -0.0000000000018919769     -0.0000000000018926783     -0.0000000000019033199     -0.0000000000019355798     -0.0000000000019965442     -0.0000000000020785606     -0.0000000000021548817     -0.0000000000021863892     -0.0000000000021355384     -0.0000000000019784200     -0.0000000000017101854     -0.0000000000013472971     -0.0000000000009316846     -0.0000000000005336537     -0.0000000000002418820     -0.0000000000001341700 
    0.0000000000000276448     -0.0000000000000512509     -0.0000000000002651725     -0.0000000000005587683     -0.0000000000008712064     -0.0000000000011556411     -0.0000000000013820878     -0.0000000000015326556     -0.0000000000016010829     -0.0000000000015973491     -0.0000000000015484018     -0.0000000000014886277     -0.0000000000014446644     -0.0000000000014257238     -0.0000000000014255738     -0.0000000000014319903     -0.0000000000014352789     -0.0000000000014319903     -0.0000000000014255738     -0.0000000000014257238     -0.0000000000014446644     -0.0000000000014886277     -0.0000000000015484018     -0.0000000000015973491     -0.0000000000016010829     -0.0000000000015326556     -0.0000000000013820878     -0.0000000000011556411     -0.0000000000008712064     -0.0000000000005587683     -0.0000000000002651725     -0.0000000000000512509     0.0000000000000276448 
    0.0000000000000750746     0.0000000000000230325     -0.0000000000001178716     -0.0000000000003111879     -0.0000000000005181740     -0.0000000000007103018     -0.0000000000008691428     -0.0000000000009814268     -0.0000000000010392487     -0.0000000000010457583     -0.0000000000010180300     -0.0000000000009808433     -0.0000000000009546365     -0.0000000000009469222     -0.0000000000009528218     -0.0000000000009620942     -0.0000000000009662279     -0.0000000000009620942     -0.0000000000009528218     -0.0000000000009469222     -0.0000000000009546365     -0.0000000000009808433     -0.0000000000010180300     -0.0000000000010457583     -0.0000000000010392487     -0.0000000000009814268     -0.0000000000008691428     -0.0000000000007103018     -0.0000000000005181740     -0.0000000000003111879     -0.0000000000001178716     0.0000000000000230325     0.0000000000000750746 
    0.0000000000000528703     0.0000000000000269769     -0.0000000000000429752     -0.0000000000001386615     -0.0000000000002410696     -0.0000000000003367776     -0.0000000000004173047     -0.0000000000004759720     -0.0000000000005079851     -0.0000000000005139536     -0.0000000000005020342     -0.0000000000004849537     -0.0000000000004735454     -0.0000000000004718829     -0.0000000000004772590     -0.0000000000004838431     -0.0000000000004866589     -0.0000000000004838431     -0.0000000000004772590     -0.0000000000004718829     -0.0000000000004735454     -0.0000000000004849537     -0.0000000000005020342     -0.0000000000005139536     -0.0000000000005079851     -0.0000000000004759720     -0.0000000000004173047     -0.0000000000003367776     -0.0000000000002410696     -0.0000000000001386615     -0.0000000000000429752     0.0000000000000269769     0.0000000000000528703 
    -0.0000000000000000000     -0.0000000000000000000     -0.0000000000000000000     -0.0000000000000000000     -0.0000000000000000000     0.0000000000000000000     0.0000000000000000000     -0.0000000000000000000     0.0000000000000000000     0.0000000000000000000     0.0000000000000000000     0.0000000000000000000     0.0000000000000000000     -0.0000000000000000000     -0.0000000000000000000     -0.0000000000000000000     -0.0000000000000000000     -0.0000000000000000000     -0.0000000000000000000     -0.0000000000000000000     0.0000000000000000000     0.0000000000000000000     0.0000000000000000000     0.0000000000000000000     0.0000000000000000000     0.0000000000000000000     0.0000000000000000000     0.0000000000000000000     0.0000000000000000000     0.0000000000000000000     -0.0000000000000000000     -0.0000000000000000000     -0.0000000000000000000 
    -0.0000000000000528703     -0.0000000000000269769     0.0000000000000429752     0.0000000000001386615     0.0000000000002410696     0.0000000000003367776     0.0000000000004173047     0.0000000000004759720     0.0000000000005079851     0.0000000000005139536     0.0000000000005020342     0.0000000000004849537     0.0000000000004735454     0.0000000000004718829     0.0000000000004772590     0.0000000000004838431     0.0000000000004866589     0.0000000000004838431     0.0000000000004772590     0.0000000000004718829     0.0000000000004735454     0.0000000000004849537     0.0000000000005020342     0.0000000000005139536     0.0000000000005079851     0.0000000000004759720     0.0000000000004173047     0.0000000000003367776     0.0000000000002410696     0.0000000000001386615     0.0000000000000429752     -0.0000000000000269769     -0.0000000000000528703 
    -0.0000000000000750746     -0.0000000000000230325     0.0000000000001178716     0.0000000000003111879     0.0000000000005181740     0.0000000000007103018     0.0000000000008691428     0.0000000000009814268     0.0000000000010392487     0.0000000000010457583     0.0000000000010180300     0.0000000000009808433     0.0000000000009546365     0.0000000000009469222     0.0000000000009528218     0.0000000000009620942     0.0000000000009662279     0.0000000000009620942     0.0000000000009528218     0.0000000000009469222     0.0000000000009546365     0.0000000000009808433     0.0000000000010180300     0.0000000000010457583     0.0000000000010392487     0.0000000000009814268     0.0000000000008691428     0.0000000000007103018     0.0000000000005181740     0.0000000000003111879     0.0000000000001178716     -0.0000000000000230325     -0.0000000000000750746 
    -0.0000000000000276448     0.0000000000000512509     0.0000000000002651725     0.0000000000005587683     0.0000000000008712064     0.0000000000011556411     0.0000000000013820878     0.0000000000015326556     0.0000000000016010829     0.0000000000015973491     0.0000000000015484018     0.0000000000014886277     0.0000000000014446644     0.0000000000014257238     0.0000000000014255738     0.0000000000014319903     0.0000000000014352789     0.0000000000014319903     0.0000000000014255738     0.0000000000014257238     0.0000000000014446644     0.0000000000014886277     0.0000000000015484018     0.0000000000015973491     0.0000000000016010829     0.0000000000015326556     0.0000000000013820878     0.0000000000011556411     0.0000000000008712064     0.0000000000005587683     0.0000000000002651725     0.0000000000000512509     -0.0000000000000276448 
    0.0000000000001341700     0.0000000000002418820     0.0000000000005336537     0.0000000000009316846     0.0000000000013472971     0.0000000000017101854     0.0000000000019784200     0.0000000000021355384     0.0000000000021863892     0.0000000000021548817     0.0000000000020785606     0.0000000000019965442     0.0000000000019355798     0.0000000000019033199     0.0000000000018926783     0.0000000000018919769     0.0000000000018926988     0.0000000000018919769     0.0000000000018926783     0.0000000000019033199     0.0000000000019355798     0.0000000000019965442     0.0000000000020785606     0.0000000000021548817     0.0000000000021863892     0.0000000000021355384     0.0000000000019784200     0.0000000000017101854     0.0000000000013472971     0.0000000000009316846     0.0000000000005336537     0.0000000000002418820     0.0000000000001341700 
    0.0000000000004294096     0.0000000000005710443     0.0000000000009532726     0.0000000000014678314     0.0000000000019870887     0.0000000000024089981     0.0000000000026804489     0.0000000000027969464     0.0000000000027886631     0.0000000000027031217     0.0000000000025893646     0.0000000000024852782     0.0000000000024103520     0.0000000000023663264     0.0000000000023447069     0.0000000000023357237     0.0000000000023333374     0.0000000000023357237     0.0000000000023447069     0.0000000000023663264     0.0000000000024103520     0.0000000000024852782     0.0000000000025893646     0.0000000000027031217     0.0000000000027886631     0.0000000000027969464     0.0000000000026804489     0.0000000000024089981     0.0000000000019870887     0.0000000000014678314     0.0000000000009532726     0.0000000000005710443     0.0000000000004294096 
    0.0000000000006394303     0.0000000000008461634     0.0000000000013981504     0.0000000000021158899     0.0000000000027756194     0.0000000000032493155     0.0000000000034912243     0.0000000000035202710     0.0000000000034076550     0.0000000000032354772     0.0000000000030667915     0.0000000000029345605     0.0000000000028456425     0.0000000000027919685     0.0000000000027617733     0.0000000000027463643     0.0000000000027415814     0.0000000000027463643     0.0000000000027617733     0.0000000000027919685     0.0000000000028456425     0.0000000000029345605     0.0000000000030667915     0.0000000000032354772     0.0000000000034076550     0.0000000000035202710     0.0000000000034912243     0.0000000000032493155     0.0000000000027756194     0.0000000000021158899     0.0000000000013981504     0.0000000000008461634     0.0000000000006394303 
    0.0000000000000444012     0.0000000000003495749     0.0000000000011741169     0.0000000000022743258     0.0000000000033350133     0.0000000000040763417     0.0000000000043450344     0.0000000000042717205     0.0000000000040293251     0.0000000000037439409     0.0000000000034986555     0.0000000000033240115     0.0000000000032143455     0.0000000000031503206     0.0000000000031143796     0.0000000000030959369     0.0000000000030902178     0.0000000000030959369     0.0000000000031143796     0.0000000000031503206     0.0000000000032143455     0.0000000000033240115     0.0000000000034986555     0.0000000000037439409     0.0000000000040293251     0.0000000000042717205     0.0000000000043450344     0.0000000000040763417     0.0000000000033350133     0.0000000000022743258     0.0000000000011741169     0.0000000000003495749     0.0000000000000444012 
    -0.0000000000016437481     -0.0000000000012298451     -0.0000000000000976193     0.0000000000014542365     0.0000000000030268330     0.0000000000042504956     0.0000000000049000175     0.0000000000049368352     0.0000000000045908321     0.0000000000041937890     0.0000000000038597089     0.0000000000036276976     0.0000000000034869947     0.0000000000034092738     0.0000000000033693293     0.0000000000033510268     0.0000000000033458296     0.0000000000033510268     0.0000000000033693293     0.0000000000034092738     0.0000000000034869947     0.0000000000036276976     0.0000000000038597089     0.0000000000041937890     0.0000000000045908321     0.0000000000049368352     0.0000000000049000175     0.0000000000042504956     0.0000000000030268330     0.0000000000014542365     -0.0000000000000976193     -0.0000000000012298451     -0.0000000000016437481 
    -0.0000000000042854328     -0.0000000000037895888     -0.0000000000024113394     -0.0000000000004578181     0.0000000000016372286     0.0000000000034364646     0.0000000000046313951     0.0000000000051156754     0.0000000000049649601     0.0000000000045070196     0.0000000000040997930     0.0000000000038092525     0.0000000000036330519     0.0000000000035398457     0.0000000000034969878     0.0000000000034806973     0.0000000000034768552     0.0000000000034806973     0.0000000000034969878     0.0000000000035398457     0.0000000000036330519     0.0000000000038092525     0.0000000000040997930     0.0000000000045070196     0.0000000000049649601     0.0000000000051156754     0.0000000000046313951     0.0000000000034364646     0.0000000000016372286     -0.0000000000004578181     -0.0000000000024113394     -0.0000000000037895888     -0.0000000000042854328 
    -0.0000000000072347538     -0.0000000000067281951     -0.0000000000052869352     -0.0000000000031474552     -0.0000000000006870879     0.0000000000016472174     0.0000000000034621642     0.0000000000045354738     0.0000000000048567066     0.0000000000045788841     0.0000000000041506934     0.0000000000038254307     0.0000000000036237170     0.0000000000035193251     0.0000000000034753079     0.0000000000034614394     0.0000000000034589375     0.0000000000034614394     0.0000000000034753079     0.0000000000035193251     0.0000000000036237170     0.0000000000038254307     0.0000000000041506934     0.0000000000045788841     0.0000000000048567066     0.0000000000045354738     0.0000000000034621642     0.0000000000016472174     -0.0000000000006870879     -0.0000000000031474552     -0.0000000000052869352     -0.0000000000067281951     -0.0000000000072347538 
    -0.0000000000095675616     -0.0000000000091403454     -0.0000000000078790452     -0.0000000000058758067     -0.0000000000033567752     -0.0000000000007012504     0.0000000000016409058     0.0000000000033092366     0.0000000000041627294     0.0000000000042868135     0.0000000000039537421     0.0000000000036392442     0.0000000000034364970     0.0000000000033317962     0.0000000000032895293     0.0000000000032775230     0.0000000000032757265     0.0000000000032775230     0.0000000000032895293     0.0000000000033317962     0.0000000000034364970     0.0000000000036392442     0.0000000000039537421     0.0000000000042868135     0.0000000000041627294     0.0000000000033092366     0.0000000000016409058     -0.0000000000007012504     -0.0000000000033567752     -0.0000000000058758067     -0.0000000000078790452     -0.0000000000091403454     -0.0000000000095675616 
    -0.0000000000105168640     -0.0000000000102314105     -0.0000000000093320197     -0.0000000000077461145     -0.0000000000055067378     -0.0000000000028667943     -0.0000000000002766431     0.0000000000017968408     0.0000000000030826592     0.0000000000035839806     0.0000000000034910739     0.0000000000032350286     0.0000000000030600435     0.0000000000029681211     0.0000000000029309011     0.0000000000029200088     0.0000000000029181794     0.0000000000029200088     0.0000000000029309011     0.0000000000029681211     0.0000000000030600435     0.0000000000032350286     0.0000000000034910739     0.0000000000035839806     0.0000000000030826592     0.0000000000017968408     -0.0000000000002766431     -0.0000000000028667943     -0.0000000000055067378     -0.0000000000077461145     -0.0000000000093320197     -0.0000000000102314105     -0.0000000000105168640 
    -0.0000000000097723419     -0.0000000000096326877     -0.0000000000091295955     -0.0000000000080765891     -0.0000000000063535322     -0.0000000000040782163     -0.0000000000016379806     0.0000000000004786654     0.0000000000019304745     0.0000000000026513012     0.0000000000027859760     0.0000000000026255126     0.0000000000024978863     0.0000000000024282508     0.0000000000023987050     0.0000000000023887754     0.0000000000023865920     0.0000000000023887754     0.0000000000023987050     0.0000000000024282508     0.0000000000024978863     0.0000000000026255126     0.0000000000027859760     0.0000000000026513012     0.0000000000019304745     0.0000000000004786654     -0.0000000000016379806     -0.0000000000040782163     -0.0000000000063535322     -0.0000000000080765891     -0.0000000000091295955     -0.0000000000096326877     -0.0000000000097723419 
    -0.0000000000074734851     -0.0000000000074336452     -0.0000000000072272245     -0.0000000000066494866     -0.0000000000055270854     -0.0000000000038839312     -0.0000000000019964207     -0.0000000000002676624     0.0000000000009899549     0.0000000000016848238     0.0000000000019092496     0.0000000000018477792     0.0000000000017710409     0.0000000000017267266     0.0000000000017064216     0.0000000000016983283     0.0000000000016961310     0.0000000000016983283     0.0000000000017064216     0.0000000000017267266     0.0000000000017710409     0.0000000000018477792     0.0000000000019092496     0.0000000000016848238     0.0000000000009899549     -0.0000000000002676624     -0.0000000000019964207     -0.0000000000038839312     -0.0000000000055270854     -0.0000000000066494866     -0.0000000000072272245     -0.0000000000074336452     -0.0000000000074734851 
    -0.0000000000040349037     -0.0000000000040346404     -0.0000000000039801513     -0.0000000000037417978     -0.0000000000032000205     -0.0000000000023456221     -0.0000000000013202655     -0.0000000000003505688     0.0000000000003777785     0.0000000000008011458     0.0000000000009626677     0.0000000000009534274     0.0000000000009193814     0.0000000000008985233     0.0000000000008882191     0.0000000000008835410     0.0000000000008821165     0.0000000000008835410     0.0000000000008882191     0.0000000000008985233     0.0000000000009193814     0.0000000000009534274     0.0000000000009626677     0.0000000000008011458     0.0000000000003777785     -0.0000000000003505688     -0.0000000000013202655     -0.0000000000023456221     -0.0000000000032000205     -0.0000000000037417978     -0.0000000000039801513     -0.0000000000040346404     -0.0000000000040349037 
    0.0000000000000000000     0.0000000000000000000     0.0000000000000000000     0.0000000000000000000     0.0000000000000000000     0.0000000000000000000     0.0000000000000000000     0.0000000000000000000     -0.0000000000000000000     -0.0000000000000000000     -0.0000000000000000000     -0.0000000000000000000     -0.0000000000000000000     -0.0000000000000000000     0.0000000000000000000     -0.0000000000000000000     0.0000000000000000000     0.0000000000000000000     -0.0000000000000000000     -0.0000000000000000000     -0.0000000000000000000     -0.0000000000000000000     -0.0000000000000000000     -0.0000000000000000000     -0.0000000000000000000     0.0000000000000000000     0.0000000000000000000     0.0000000000000000000     0.0000000000000000000     0.0000000000000000000     0.0000000000000000000     0.0000000000000000000     0.0000000000000000000 
    0.0000000000000000000     0.0000000141755879815     0.0000000839173257705     0.0000002311130136428     0.0000004269421458462     0.0000006035236162989     0.0000006908946453495     0.0000006565054485258     0.0000005210166605769     0.0000003436767958548     0.0000001929174555925     0.0000001160427399370     0.0000000745067131074     0.0000000473122747537     0.0000000283441692795     0.0000000133953541877     0.0000000000000000000     -0.0000000133953541877     -0.0000000283441692795     -0.0000000473122747537     -0.0000000745067131074     -0.0000001160427399370     -0.0000001929174555925     -0.0000003436767958548     -0.0000005210166605769     -0.0000006565054485258     -0.0000006908946453495     -0.0000006035236162989     -0.0000004269421458462     -0.0000002311130136428     -0.0000000839173257705     -0.0000000141755879815     0.0000000000000000000 
    0.0000000000039442891     0.0000000169966042609     0.0000000871998846388     0.0000002311001567717     0.0000004202241040176     0.0000005888846087441     0.0000006701454170306     0.0000006336823633708     0.0000005005190785256     0.0000003286103617508     0.0000001844463840811     0.0000001122631468663     0.0000000722728986546     0.0000000459995978045     0.0000000275976432517     0.0000000130507038720     -0.0000000000008686160     -0.0000000130524424453     -0.0000000275993868759     -0.0000000460013554429     -0.0000000722746897773     -0.0000001122649972839     -0.0000001844482538476     -0.0000003286119251283     -0.0000005005198280421     -0.0000006336817063097     -0.0000006701428817642     -0.0000005888800811065     -0.0000004202179072640     -0.0000002310928890607     -0.0000000871921304379     -0.0000000169887241386     0.0000000000039442891 
    0.0000000000072890631     0.0000000242082032970     0.0000000949751859234     0.0000002289802539586     0.0000003989664331052     0.0000005455752168004     0.0000006103076739237     0.0000005688433166970     0.0000004429775634610     0.0000002869096066929     0.0000001616561739419     0.0000001017614195003     0.0000000660451191392     0.0000000423232809232     0.0000000254986843662     0.0000000120799296105     -0.0000000000016712435     -0.0000000120832737343     -0.0000000255020367959     -0.0000000423266618668     -0.0000000660485735283     -0.0000001017650109437     -0.0000001616598861532     -0.0000002869128996910     -0.0000004429795266823     -0.0000005688428575992     -0.0000006103038728301     -0.0000005455677538663     -0.0000003989557651440     -0.0000002289673733815     -0.0000000949611395330     -0.0000000241937177904     0.0000000000072890631 
    0.0000000000094928651     0.0000000326294702508     0.0000001021064734897     0.0000002199136542936     0.0000003612151618469     0.0000004762941145814     0.0000005187454755487     0.0000004723224697821     0.0000003592872625139     0.0000002280358884982     0.0000001315187033336     0.0000000866594336030     0.0000000570030851002     0.0000000369223835483     0.0000000223834277459     0.0000000106301464926     -0.0000000000023529601     -0.0000000106348531634     -0.0000000223881439377     -0.0000000369271429247     -0.0000000570079636112     -0.0000000866645451222     -0.0000001315241238247     -0.0000002280410751462     -0.0000003592910831745     -0.0000004723235077196     -0.0000005187424354020     -0.0000004762863531998     -0.0000003612029744421     -0.0000002198980849665     -0.0000001020888052289     -0.0000000326107757057     0.0000000000094928651 
    0.0000000000101545928     0.0000000385638254969     0.0000001030244779063     0.0000001995741834391     0.0000003071055279352     0.0000003874338169761     0.0000004075428408366     0.0000003593410627160     0.0000002646471472000     0.0000001647251467520     0.0000001025220176481     0.0000000694752970641     0.0000000465012675079     0.0000000305035286574     0.0000000186100047983     0.0000000088540547225     -0.0000000000028773076     -0.0000000088598088980     -0.0000000186157690586     -0.0000000305093493715     -0.0000000465072491497     -0.0000000694816027271     -0.0000001025288110473     -0.0000001647321543811     -0.0000002646532289873     -0.0000003593447016716     -0.0000004075425060361     -0.0000003874284910137     -0.0000003070950863233     -0.0000001995593699850     -0.0000001030065369699     -0.0000000385440904809     0.0000000000101545928 
    0.0000000000091598767     0.0000000394491250816     0.0000000945640269543     0.0000001672473795958     0.0000002410527111242     0.0000002894471180731     0.0000002918525991641     0.0000002469145688388     0.0000001749530325097     0.0000001096390011815     0.0000000756182400535     0.0000000522827290478     0.0000000356007861706     0.0000000235852739527     0.0000000144228265208     0.0000000068502474817     -0.0000000000032276783     -0.0000000068567021391     -0.0000000144292930159     -0.0000000235918064522     -0.0000000356075045736     -0.0000000522898259031     -0.0000000756259388868     -0.0000001096473675623     -0.0000001749612158662     -0.0000002469211624388     -0.0000002918560232685     -0.0000002894460540033     -0.0000002410465252202     -0.0000001672363030649     -0.0000000945490337073     -0.0000000394316495611     0.0000000000091598767 
    0.0000000000068416682     0.0000000348927045555     0.0000000774307784652     0.0000001267928546765     0.0000001713963812449     0.0000001948985315042     0.0000001867215915858     0.0000001501847856745     0.0000001033176129176     0.0000000716429098441     0.0000000517741700606     0.0000000363262693469     0.0000000249075667206     0.0000000164416920264     0.0000000099388768534     0.0000000046621431139     -0.0000000000034034741     -0.0000000046689508103     -0.0000000099457003719     -0.0000000164485858788     -0.0000000249146474690     -0.0000000363337284774     -0.0000000517822536794     -0.0000000716518289069     -0.0000001033271264598     -0.0000001501937499123     -0.0000001867285511278     -0.0000001949020400563     -0.0000001713954104962     -0.0000001267871308525     -0.0000000774208982150     -0.0000000348800120720     0.0000000000068416682 
    0.0000000000039673031     0.0000000265612658454     0.0000000555684988588     0.0000000850273116398     0.0000001077082625515     0.0000001150974472858     0.0000001036837549991     0.0000000794607001605     0.0000000577277906636     0.0000000440928309038     0.0000000318909705237     0.0000000221053566664     0.0000000146879844761     0.0000000092108401191     0.0000000052285866222     0.0000000023204864868     -0.0000000000034148874     -0.0000000023273199530     -0.0000000052354416990     -0.0000000092177652306     -0.0000000146950775731     -0.0000000221127818957     -0.0000000318989557084     -0.0000000441016120671     -0.0000000577374816237     -0.0000000794707585918     -0.0000001036929524168     -0.0000001151043989079     -0.0000001077117792968     -0.0000000850267961800     -0.0000000555642039486     -0.0000000265542954370     0.0000000000039673031 
    0.0000000000014339886     0.0000000171329722686     0.0000000340863005354     0.0000000488540836112     0.0000000576502205591     0.0000000573170350922     0.0000000487331287803     0.0000000389354415007     0.0000000315549886840     0.0000000233979356837     0.0000000158613413289     0.0000000096737597575     0.0000000050696588533     0.0000000020287600791     0.0000000003986000993     -0.0000000001172698455     -0.0000000000032799966     0.0000000001107029541     -0.0000000004051941900     -0.0000000020354212387     -0.0000000050764614963     -0.0000000096808297206     -0.0000000158688614525     -0.0000000234061119081     -0.0000000315639531620     -0.0000000389451075565     -0.0000000487427951235     -0.0000000573255055139     -0.0000000576563659807     -0.0000000488572082843     -0.0000000340864281745     -0.0000000171309069832     0.0000000000014339886 
    -0.0000000000001495649     0.0000000090798270759     0.0000000171972993333     0.0000000230044512083     0.0000000251938293376     0.0000000238839883043     0.0000000218657198354     0.0000000185824954798     0.0000000137309503801     0.0000000082692243645     0.0000000030960939222     -0.0000000010906636182     -0.0000000038338428352     -0.0000000049208508136     -0.0000000043937175325     -0.0000000025649620353     -0.0000000000030242894     0.0000000025589048092     0.0000000043876307906     0.0000000049147017725     0.0000000038275752446     0.0000000010841849371     -0.0000000031029151818     -0.0000000082765316287     -0.0000000137388280691     -0.0000000185908654048     -0.0000000218742553932     -0.0000000238920436268     -0.0000000252004817746     -0.0000000230090656959     -0.0000000171997876561     -0.0000000090807179848     -0.0000000000001495649 
    -0.0000000000006688932     0.0000000039410137695     0.0000000071810542387     0.0000000092774565018     0.0000000104549287219     0.0000000104191257797     0.0000000088617369793     0.0000000058686296258     0.0000000017892570899     -0.0000000027811897532     -0.0000000070844602418     -0.0000000103389773135     -0.0000000119079180620     -0.0000000114477088123     -0.0000000089893907540     -0.0000000049379601976     -0.0000000000026793145     0.0000000049325939440     0.0000000089839987481     0.0000000114422627730     0.0000000119023704104     0.0000000103332557179     0.0000000070784756855     0.0000000027748664672     -0.0000000017959297703     -0.0000000058755372506     -0.0000000088686015536     -0.0000000104255269814     -0.0000000104604078871     -0.0000000092816585561     -0.0000000071838653832     -0.0000000039427531594     -0.0000000000006688932 
    -0.0000000000004253172     0.0000000019918120037     0.0000000036131907206     0.0000000045493542284     0.0000000045669852073     0.0000000035078448682     0.0000000012859998572     -0.0000000020710508310     -0.0000000063327473834     -0.0000000109848013007     -0.0000000152425564039     -0.0000000181992620519     -0.0000000190675717073     -0.0000000174122675584     -0.0000000132775818624     -0.0000000071802434384     -0.0000000000022776613     0.0000000071756843872     0.0000000132730075681     0.0000000174076534044     0.0000000190628723375     0.0000000181944140661     0.0000000152374989803     0.0000000109795118020     0.0000000063272785500     0.0000000020655539863     -0.0000000012912769505     -0.0000000035125927506     -0.0000000045709032261     -0.0000000045522486721     -0.0000000036150715001     -0.0000000019929409345     -0.0000000000004253172 
    -0.0000000000001277401     0.0000000011865557214     0.0000000020122076960     0.0000000021718667511     0.0000000014417960446     -0.0000000003269150035     -0.0000000032145144867     -0.0000000071931117703     -0.0000000120269047225     -0.0000000171687271290     -0.0000000217546728692     -0.0000000247569851287     -0.0000000252567993141     -0.0000000227234601063     -0.0000000171871532585     -0.0000000092565795968     -0.0000000000018456200     0.0000000092528900256     0.0000000171834629101     0.0000000227197493272     0.0000000252530247224     0.0000000247530884616     0.0000000217506100527     0.0000000171645063848     0.0000000120226120780     0.0000000071889094477     0.0000000032106148698     0.0000000003235421643     -0.0000000014444509331     -0.0000000021736980653     -0.0000000020132514389     -0.0000000011870234935     -0.0000000000001277401 
    0.0000000000000333409     0.0000000007789046030     0.0000000011983722660     0.0000000009405708286     -0.0000000002453229510     -0.0000000025332976989     -0.0000000060078914431     -0.0000000106177562027     -0.0000000160819751831     -0.0000000217944688216     -0.0000000268181943878     -0.0000000300307652550     -0.0000000303964194754     -0.0000000272692827534     -0.0000000206198898113     -0.0000000111113261908     -0.0000000000013982651     0.0000000111085358746     0.0000000206171114508     0.0000000272665031671     0.0000000303936013294     0.0000000300278584332     0.0000000268151661086     0.0000000217913381993     0.0000000160788295278     0.0000000106147378342     0.0000000060051650599     0.0000000025310174747     0.0000000002436072253     -0.0000000009416655314     -0.0000000011988845219     -0.0000000007789936907     0.0000000000000333409 
    0.0000000000000793392     0.0000000005750699490     0.0000000007843984518     0.0000000002917002501     -0.0000000011836654193     -0.0000000038412682083     -0.0000000077682979406     -0.0000000128866776957     -0.0000000188702256212     -0.0000000250653627969     -0.0000000304883238687     -0.0000000339541399037     -0.0000000343296045197     -0.0000000308469041800     -0.0000000233865413869     -0.0000000126300938270     -0.0000000000009405674     0.0000000126282203691     0.0000000233846850094     0.0000000308450579666     0.0000000343277416586     0.0000000339522237849     0.0000000304863320658     0.0000000250633125589     0.0000000188681831715     0.0000000128847442175     0.0000000077665828122     0.0000000038398665669     0.0000000011826457995     -0.0000000002923076571     -0.0000000007846217225     -0.0000000005750141324     0.0000000000000793392 
    0.0000000000000552275     0.0000000004789602736     0.0000000005846216720     -0.0000000000336903142     -0.0000000016766713466     -0.0000000045598333942     -0.0000000087705075957     -0.0000000142113525354     -0.0000000205263692386     -0.0000000270349286168     -0.0000000327310981550     -0.0000000363962695082     -0.0000000368310643732     -0.0000000331717404980     -0.0000000252170443754     -0.0000000136468359213     -0.0000000000004734801     0.0000000136458941670     0.0000000252161147281     0.0000000331708204048     0.0000000368301400591     0.0000000363953218323     0.0000000327301156706     0.0000000270339208499     0.0000000205253707995     0.0000000142104147559     0.0000000087696840505     0.0000000045591689244     0.0000000016761974004     0.0000000000334205601     -0.0000000005847010954     -0.0000000004789010322     0.0000000000000552275 
    -0.0000000000000000000     0.0000000004504144760     0.0000000005243510837     -0.0000000001342170168     -0.0000000018328291630     -0.0000000047921686829     -0.0000000090992708122     -0.0000000146499427043     -0.0000000210780601972     -0.0000000276945613381     -0.0000000334874854646     -0.0000000372279104779     -0.0000000376928957094     -0.0000000339820665271     -0.0000000258611521962     -0.0000000140066891075     0.0000000000000000000     0.0000000140066891075     0.0000000258611521962     0.0000000339820665271     0.0000000376928957094     0.0000000372279104779     0.0000000334874854646     0.0000000276945613381     0.0000000210780601972     0.0000000146499427043     0.0000000090992708122     0.0000000047921686829     0.0000000018328291630     0.0000000001342170168     -0.0000000005243510837     -0.0000000004504144760     -0.0000000000000000000 
    -0.0000000000000552275     0.0000000004789010322     0.0000000005847010954     -0.0000000000334205601     -0.0000000016761974004     -0.0000000045591689244     -0.0000000087696840505     -0.0000000142104147559     -0.0000000205253707995     -0.0000000270339208499     -0.0000000327301156706     -0.0000000363953218323     -0.0000000368301400591     -0.0000000331708204048     -0.0000000252161147281     -0.0000000136458941670     0.0000000000004734801     0.0000000136468359213     0.0000000252170443754     0.0000000331717404980     0.0000000368310643732     0.0000000363962695082     0.0000000327310981550     0.0000000270349286168     0.0000000205263692386     0.0000000142113525354     0.0000000087705075957     0.0000000045598333942     0.0000000016766713466     0.0000000000336903142     -0.0000000005846216720     -0.0000000004789602736     -0.0000000000000552275 
    -0.0000000000000793392     0.0000000005750141324     0.0000000007846217225     0.0000000002923076571     -0.0000000011826457995     -0.0000000038398665669     -0.0000000077665828122     -0.0000000128847442175     -0.0000000188681831715     -0.0000000250633125589     -0.0000000304863320658     -0.0000000339522237849     -0.0000000343277416586     -0.0000000308450579666     -0.0000000233846850094     -0.0000000126282203691     0.0000000000009405674     0.0000000126300938270     0.0000000233865413869     0.0000000308469041800     0.0000000343296045197     0.0000000339541399037     0.0000000304883238687     0.0000000250653627969     0.0000000188702256212     0.0000000128866776957     0.0000000077682979406     0.0000000038412682083     0.0000000011836654193     -0.0000000002917002501     -0.0000000007843984518     -0.0000000005750699490     -0.0000000000000793392 
    -0.0000000000000333409     0.0000000007789936907     0.0000000011988845219     0.0000000009416655314     -0.0000000002436072253     -0.0000000025310174747     -0.0000000060051650599     -0.0000000106147378342     -0.0000000160788295278     -0.0000000217913381993     -0.0000000268151661086     -0.0000000300278584332     -0.0000000303936013294     -0.0000000272665031671     -0.0000000206171114508     -0.0000000111085358746     0.0000000000013982651     0.0000000111113261908     0.0000000206198898113     0.0000000272692827534     0.0000000303964194754     0.0000000300307652550     0.0000000268181943878     0.0000000217944688216     0.0000000160819751831     0.0000000106177562027     0.0000000060078914431     0.0000000025332976989     0.0000000002453229510     -0.0000000009405708286     -0.0000000011983722660     -0.0000000007789046030     -0.0000000000000333409 
    0.0000000000001277401     0.0000000011870234935     0.0000000020132514389     0.0000000021736980653     0.0000000014444509331     -0.0000000003235421643     -0.0000000032106148698     -0.0000000071889094477     -0.0000000120226120780     -0.0000000171645063848     -0.0000000217506100527     -0.0000000247530884616     -0.0000000252530247224     -0.0000000227197493272     -0.0000000171834629101     -0.0000000092528900256     0.0000000000018456200     0.0000000092565795968     0.0000000171871532585     0.0000000227234601063     0.0000000252567993141     0.0000000247569851287     0.0000000217546728692     0.0000000171687271290     0.0000000120269047225     0.0000000071931117703     0.0000000032145144867     0.0000000003269150035     -0.0000000014417960446     -0.0000000021718667511     -0.0000000020122076960     -0.0000000011865557214     0.0000000000001277401 
    0.0000000000004253172     0.0000000019929409345     0.0000000036150715001     0.0000000045522486721     0.0000000045709032261     0.0000000035125927506     0.0000000012912769505     -0.0000000020655539863     -0.0000000063272785500     -0.0000000109795118020     -0.0000000152374989803     -0.0000000181944140661     -0.0000000190628723375     -0.0000000174076534044     -0.0000000132730075681     -0.0000000071756843872     0.0000000000022776613     0.0000000071802434384     0.0000000132775818624     0.0000000174122675584     0.0000000190675717073     0.0000000181992620519     0.0000000152425564039     0.0000000109848013007     0.0000000063327473834     0.0000000020710508310     -0.0000000012859998572     -0.0000000035078448682     -0.0000000045669852073     -0.0000000045493542284     -0.0000000036131907206     -0.0000000019918120037     0.0000000000004253172 
    0.0000000000006688932     0.0000000039427531594     0.0000000071838653832     0.0000000092816585561     0.0000000104604078871     0.0000000104255269814     0.0000000088686015536     0.0000000058755372506     0.0000000017959297703     -0.0000000027748664672     -0.0000000070784756855     -0.0000000103332557179     -0.0000000119023704104     -0.0000000114422627730     -0.0000000089839987481     -0.0000000049325939440     0.0000000000026793145     0.0000000049379601976     0.0000000089893907540     0.0000000114477088123     0.0000000119079180620     0.0000000103389773135     0.0000000070844602418     0.0000000027811897532     -0.0000000017892570899     -0.0000000058686296258     -0.0000000088617369793     -0.0000000104191257797     -0.0000000104549287219     -0.0000000092774565018     -0.0000000071810542387     -0.0000000039410137695     0.0000000000006688932 
    0.0000000000001495649     0.0000000090807179848     0.0000000171997876561     0.0000000230090656959     0.0000000252004817746     0.0000000238920436268     0.0000000218742553932     0.0000000185908654048     0.0000000137388280691     0.0000000082765316287     0.0000000031029151818     -0.0000000010841849371     -0.0000000038275752446     -0.0000000049147017725     -0.0000000043876307906     -0.0000000025589048092     0.0000000000030242894     0.0000000025649620353     0.0000000043937175325     0.0000000049208508136     0.0000000038338428352     0.0000000010906636182     -0.0000000030960939222     -0.0000000082692243645     -0.0000000137309503801     -0.0000000185824954798     -0.0000000218657198354     -0.0000000238839883043     -0.0000000251938293376     -0.0000000230044512083     -0.0000000171972993333     -0.0000000090798270759     0.0000000000001495649 
    -0.0000000000014339886     0.0000000171309069832     0.0000000340864281745     0.0000000488572082843     0.0000000576563659807     0.0000000573255055139     0.0000000487427951235     0.0000000389451075565     0.0000000315639531620     0.0000000234061119081     0.0000000158688614525     0.0000000096808297206     0.0000000050764614963     0.0000000020354212387     0.0000000004051941900     -0.0000000001107029541     0.0000000000032799966     0.0000000001172698455     -0.0000000003986000993     -0.0000000020287600791     -0.0000000050696588533     -0.0000000096737597575     -0.0000000158613413289     -0.0000000233979356837     -0.0000000315549886840     -0.0000000389354415007     -0.0000000487331287803     -0.0000000573170350922     -0.0000000576502205591     -0.0000000488540836112     -0.0000000340863005354     -0.0000000171329722686     -0.0000000000014339886 
    -0.0000000000039673031     0.0000000265542954370     0.0000000555642039486     0.0000000850267961800     0.0000001077117792968     0.0000001151043989079     0.0000001036929524168     0.0000000794707585918     0.0000000577374816237     0.0000000441016120671     0.0000000318989557084     0.0000000221127818957     0.0000000146950775731     0.0000000092177652306     0.0000000052354416990     0.0000000023273199530     0.0000000000034148874     -0.0000000023204864868     -0.0000000052285866222     -0.0000000092108401191     -0.0000000146879844761     -0.0000000221053566664     -0.0000000318909705237     -0.0000000440928309038     -0.0000000577277906636     -0.0000000794607001605     -0.0000001036837549991     -0.0000001150974472858     -0.0000001077082625515     -0.0000000850273116398     -0.0000000555684988588     -0.0000000265612658454     -0.0000000000039673031 
    -0.0000000000068416682     0.0000000348800120720     0.0000000774208982150     0.0000001267871308525     0.0000001713954104962     0.0000001949020400563     0.0000001867285511278     0.0000001501937499123     0.0000001033271264598     0.0000000716518289069     0.0000000517822536794     0.0000000363337284774     0.0000000249146474690     0.0000000164485858788     0.0000000099457003719     0.0000000046689508103     0.0000000000034034741     -0.0000000046621431139     -0.0000000099388768534     -0.0000000164416920264     -0.0000000249075667206     -0.0000000363262693469     -0.0000000517741700606     -0.0000000716429098441     -0.0000001033176129176     -0.0000001501847856745     -0.0000001867215915858     -0.0000001948985315042     -0.0000001713963812449     -0.0000001267928546765     -0.0000000774307784652     -0.0000000348927045555     -0.0000000000068416682 
    -0.0000000000091598767     0.0000000394316495611     0.0000000945490337073     0.0000001672363030649     0.0000002410465252202     0.0000002894460540033     0.0000002918560232685     0.0000002469211624388     0.0000001749612158662     0.0000001096473675623     0.0000000756259388868     0.0000000522898259031     0.0000000356075045736     0.0000000235918064522     0.0000000144292930159     0.0000000068567021391     0.0000000000032276783     -0.0000000068502474817     -0.0000000144228265208     -0.0000000235852739527     -0.0000000356007861706     -0.0000000522827290478     -0.0000000756182400535     -0.0000001096390011815     -0.0000001749530325097     -0.0000002469145688388     -0.0000002918525991641     -0.0000002894471180731     -0.0000002410527111242     -0.0000001672473795958     -0.0000000945640269543     -0.0000000394491250816     -0.0000000000091598767 
    -0.0000000000101545928     0.0000000385440904809     0.0000001030065369699     0.0000001995593699850     0.0000003070950863233     0.0000003874284910137     0.0000004075425060361     0.0000003593447016716     0.0000002646532289873     0.0000001647321543811     0.0000001025288110473     0.0000000694816027271     0.0000000465072491497     0.0000000305093493715     0.0000000186157690586     0.0000000088598088980     0.0000000000028773076     -0.0000000088540547225     -0.0000000186100047983     -0.0000000305035286574     -0.0000000465012675079     -0.0000000694752970641     -0.0000001025220176481     -0.0000001647251467520     -0.0000002646471472000     -0.0000003593410627160     -0.0000004075428408366     -0.0000003874338169761     -0.0000003071055279352     -0.0000001995741834391     -0.0000001030244779063     -0.0000000385638254969     -0.0000000000101545928 
    -0.0000000000094928651     0.0000000326107757057     0.0000001020888052289     0.0000002198980849666     0.0000003612029744421     0.0000004762863531998     0.0000005187424354020     0.0000004723235077196     0.0000003592910831745     0.0000002280410751462     0.0000001315241238247     0.0000000866645451222     0.0000000570079636112     0.0000000369271429247     0.0000000223881439377     0.0000000106348531634     0.0000000000023529601     -0.0000000106301464926     -0.0000000223834277459     -0.0000000369223835483     -0.0000000570030851002     -0.0000000866594336030     -0.0000001315187033336     -0.0000002280358884982     -0.0000003592872625139     -0.0000004723224697821     -0.0000005187454755487     -0.0000004762941145814     -0.0000003612151618469     -0.0000002199136542936     -0.0000001021064734897     -0.0000000326294702508     -0.0000000000094928651 
    -0.0000000000072890631     0.0000000241937177904     0.0000000949611395330     0.0000002289673733815     0.0000003989557651440     0.0000005455677538663     0.0000006103038728301     0.0000005688428575992     0.0000004429795266823     0.0000002869128996910     0.0000001616598861532     0.0000001017650109437     0.0000000660485735283     0.0000000423266618668     0.0000000255020367959     0.0000000120832737343     0.0000000000016712435     -0.0000000120799296105     -0.0000000254986843662     -0.0000000423232809232     -0.0000000660451191392     -0.0000001017614195003     -0.0000001616561739419     -0.0000002869096066929     -0.0000004429775634610     -0.0000005688433166970     -0.0000006103076739237     -0.0000005455752168004     -0.0000003989664331052     -0.0000002289802539586     -0.0000000949751859234     -0.0000000242082032970     -0.0000000000072890631 
    -0.0000000000039442891     0.0000000169887241386     0.0000000871921304379     0.0000002310928890607     0.0000004202179072640     0.0000005888800811065     0.0000006701428817642     0.0000006336817063097     0.0000005005198280421     0.0000003286119251283     0.0000001844482538476     0.0000001122649972839     0.0000000722746897773     0.0000000460013554429     0.0000000275993868759     0.0000000130524424453     0.0000000000008686160     -0.0000000130507038720     -0.0000000275976432517     -0.0000000459995978045     -0.0000000722728986546     -0.0000001122631468663     -0.0000001844463840811     -0.0000003286103617508     -0.0000005005190785256     -0.0000006336823633708     -0.0000006701454170306     -0.0000005888846087441     -0.0000004202241040176     -0.0000002311001567717     -0.0000000871998846388     -0.0000000169966042609     -0.0000000000039442891 
    0.0000000000000000000     0.0000000141755879815     0.0000000839173257705     0.0000002311130136428     0.0000004269421458462     0.0000006035236162989     0.0000006908946453495     0.0000006565054485258     0.0000005210166605769     0.0000003436767958548     0.0000001929174555925     0.0000001160427399370     0.0000000745067131074     0.0000000473122747537     0.0000000283441692795     0.0000000133953541877     0.0000000000000000000     -0.0000000133953541877     -0.0000000283441692795     -0.0000000473122747537     -0.0000000745067131074     -0.0000001160427399370     -0.0000001929174555925     -0.0000003436767958548     -0.0000005210166605769     -0.0000006565054485258     -0.0000006908946453495     -0.0000006035236162989     -0.0000004269421458462     -0.0000002311130136428     -0.0000000839173257705     -0.0000000141755879815     0.0000000000000000000 
    0.0000000000000000000     -0.0000000364016708695     0.0000000394560828371     0.0000002746919495488     0.0000006187440128422     0.0000009455826312164     0.0000011230325702336     0.0000010863376797742     0.0000008682486214990     0.0000005736801492160     0.0000003267660286955     0.0000002055090417785     0.0000001340628752017     0.0000000862503560820     0.0000000521221685090     0.0000000247432197900     -0.0000000000000000000     -0.0000000247432197900     -0.0000000521221685090     -0.0000000862503560820     -0.0000001340628752017     -0.0000002055090417785     -0.0000003267660286955     -0.0000005736801492160     -0.0000008682486214990     -0.0000010863376797742     -0.0000011230325702336     -0.0000009455826312164     -0.0000006187440128422     -0.0000002746919495488     -0.0000000394560828371     0.0000000364016708695     0.0000000000000000000 
    0.0000000000036652166     -0.0000000294753068625     0.0000000486814167294     0.0000002788480010943     0.0000006110800561171     0.0000009234346962749     0.0000010893614480767     0.0000010482730375640     0.0000008337190711706     0.0000005484009052809     0.0000003130003096142     0.0000001989931628385     0.0000001301702773623     0.0000000839390356071     0.0000000507971365108     0.0000000241288807656     -0.0000000000008297767     -0.0000000241305374915     -0.0000000507987863919     -0.0000000839406813086     -0.0000001301719338914     -0.0000001989948545891     -0.0000003130020211531     -0.0000005484023595467     -0.0000008337198085438     -0.0000010482725164282     -0.0000010893592298717     -0.0000009234306590831     -0.0000006110744691865     -0.0000002788413839883     -0.0000000486742887087     0.0000000294826069708     0.0000000000036652166 
    0.0000000000067265083     -0.0000000111880509305     0.0000000722008350411     0.0000002870407962990     0.0000005855388221489     0.0000008575250371109     0.0000009921511759562     0.0000009401291499506     0.0000007368378712631     0.0000004785490364913     0.0000002761925365072     0.0000001808285463722     0.0000001192685232124     0.0000000774286534025     0.0000000470464158094     0.0000000223851683961     -0.0000000000015986622     -0.0000000223883596760     -0.0000000470495934463     -0.0000000774318258642     -0.0000001192717268270     -0.0000001808318413454     -0.0000002761959410161     -0.0000004785521078282     -0.0000007368397880609     -0.0000009401289171872     -0.0000009921479415413     -0.0000008575184760380     -0.0000005855293000396     -0.0000002870291643244     -0.0000000721880169103     0.0000000112013767488     0.0000000000067265083 
    0.0000000000086536045     0.0000000120052648596     0.0000000994780153561     0.0000002889540845299     0.0000005368981193257     0.0000007510420619173     0.0000008431097084290     0.0000007791597246164     0.0000005961321012594     0.0000003803440737680     0.0000002282929372801     0.0000001545375320957     0.0000001033014101183     0.0000000677603548058     0.0000000414107694043     0.0000000197465292576     -0.0000000000022532279     -0.0000000197510262844     -0.0000000414152468283     -0.0000000677648305387     -0.0000001033059480362     -0.0000001545422398940     -0.0000002282979111773     -0.0000003803489145417     -0.0000005961357942991     -0.0000007791609864940     -0.0000008431073459967     -0.0000007510354466455     -0.0000005368874493953     -0.0000002889402324327     -0.0000000994621003437     -0.0000000119882781855     0.0000000000086536045 
    0.0000000000090879895     0.0000000323107862769     0.0000001184541573913     0.0000002742481289499     0.0000004626905350926     0.0000006128917877204     0.0000006616811930605     0.0000005908706533133     0.0000004375288994209     0.0000002756859399011     0.0000001803086278035     0.0000001243352425450     0.0000000845220081671     0.0000000560960678035     0.0000000344708378739     0.0000000164578225994     -0.0000000000027547221     -0.0000000164633199292     -0.0000000344763119249     -0.0000000561015469091     -0.0000000845275824974     -0.0000001243410661176     -0.0000001803148683837     -0.0000002756924617442     -0.0000004375347135575     -0.0000005908743949119     -0.0000006616814622034     -0.0000006128876164568     -0.0000004626817316156     -0.0000002742352768768     -0.0000001184383237557     -0.0000000322931876679     0.0000000000090879895 
    0.0000000000079849431     0.0000000437690834765     0.0000001210081445013     0.0000002385730594870     0.0000003676196742251     0.0000004588508372236     0.0000004725753030216     0.0000004039276074692     0.0000002882609967203     0.0000001864149139789     0.0000001333660914315     0.0000000937469373364     0.0000000647299386940     0.0000000433070712181     0.0000000266313510584     0.0000000126801877378     -0.0000000000030835627     -0.0000000126863418108     -0.0000000266374818834     -0.0000000433132145439     -0.0000000647361999120     -0.0000000937534984411     -0.0000001333731754079     -0.0000001864226528054     -0.0000002882687342523     -0.0000004039340878369     -0.0000004725790918331     -0.0000004588507018356     -0.0000003676149655749     -0.0000002385638946587     -0.0000001209953361344     -0.0000000437539227545     0.0000000000079849431 
    0.0000000000057330221     0.0000000444406910119     0.0000001061806586553     0.0000001860491133666     0.0000002637275141147     0.0000003088295248132     0.0000003007060127889     0.0000002440357205960     0.0000001709002221917     0.0000001243720509847     0.0000000913059802877     0.0000000649501813523     0.0000000449958563215     0.0000000298804787564     0.0000000181005317509     0.0000000084907501667     -0.0000000000032387498     -0.0000000084972160734     -0.0000000181069788777     -0.0000000298869447248     -0.0000000450024454524     -0.0000000649570758651     -0.0000000913134230263     -0.0000001243802667269     -0.0000001709091229022     -0.0000002440443321899     -0.0000003007130198264     -0.0000003088335882267     -0.0000002637276387951     -0.0000001860449689544     -0.0000001061727174396     -0.0000000444301480833     0.0000000000057330221 
    0.0000000000030900295     0.0000000365197818142     0.0000000796109125398     0.0000001271035985143     0.0000001663430616670     0.0000001815206579149     0.0000001655772512330     0.0000001288998416730     0.0000000985707869360     0.0000000763038413918     0.0000000557596538218     0.0000000388811442821     0.0000000258357562701     0.0000000160918263821     0.0000000090215717526     0.0000000039522222147     -0.0000000000032332633     -0.0000000039586807953     -0.0000000090280199179     -0.0000000160982987172     -0.0000000258423426863     -0.0000000388880036251     -0.0000000557670112871     -0.0000000763119398608     -0.0000000985797685292     -0.0000001289093610529     -0.0000001655862080671     -0.0000001815277719013     -0.0000001663472017029     -0.0000001271041551923     -0.0000000796080564377     -0.0000000365144855235     0.0000000000030900295 
    0.0000000000008713270     0.0000000245901502774     0.0000000500718542994     0.0000000736478660293     0.0000000887704984757     0.0000000896489792351     0.0000000777444763206     0.0000000653832305684     0.0000000534657746706     0.0000000397047038828     0.0000000266369544383     0.0000000157122907513     0.0000000075314748030     0.0000000022190499553     -0.0000000003955166845     -0.0000000008245553627     -0.0000000000030890566     0.0000000008183805707     0.0000000003893422340     -0.0000000022252538501     -0.0000000075377791993     -0.0000000157188212047     -0.0000000266438943831     -0.0000000397122637581     -0.0000000534741028791     -0.0000000653922763444     -0.0000000777537130397     -0.0000000896573046483     -0.0000000887768398552     -0.0000000736515367600     -0.0000000500728307398     -0.0000000245891382369     0.0000000000008713270 
    -0.0000000000004180301     0.0000000133473672620     0.0000000256010051539     0.0000000347955970092     0.0000000388189567582     0.0000000380266198345     0.0000000361875627534     0.0000000307560198538     0.0000000222845293006     0.0000000124699137725     0.0000000030090881262     -0.0000000046976634407     -0.0000000096667222121     -0.0000000113831838787     -0.0000000098576558313     -0.0000000056818659625     -0.0000000000028339147     0.0000000056761976416     0.0000000098519795593     0.0000000113774733964     0.0000000096609210276     0.0000000046916752804     -0.0000000030153990751     -0.0000000124766963961     -0.0000000222918786105     -0.0000000307638779348     -0.0000000361956343146     -0.0000000380343497259     -0.0000000388255042707     -0.0000000348003398455     -0.0000000256038311868     -0.0000000133487423384     -0.0000000000004180301 
    -0.0000000000007294940     0.0000000060567701052     0.0000000111985393307     0.0000000149203940440     0.0000000172495736099     0.0000000172031381620     0.0000000143528631150     0.0000000087418883847     0.0000000009651698320     -0.0000000078527344632     -0.0000000162181169347     -0.0000000225483422269     -0.0000000255148590638     -0.0000000243570451888     -0.0000000190761043335     -0.0000000104688127517     -0.0000000000024990657     0.0000000104638126276     0.0000000190710931457     0.0000000243519983517     0.0000000255097270691     0.0000000225430473011     0.0000000162125633584     0.0000000078468390465     -0.0000000009714268778     -0.0000000087484043604     -0.0000000143593741903     -0.0000000172092394921     -0.0000000172548216147     -0.0000000149244673522     -0.0000000112013471104     -0.0000000060585971437     -0.0000000000007294940 
    -0.0000000000004044113     0.0000000034427575080     0.0000000062631084321     0.0000000078940985459     0.0000000078548613237     0.0000000057617910239     0.0000000013665991217     -0.0000000053291518915     -0.0000000138883958167     -0.0000000232860702837     -0.0000000319400638887     -0.0000000379997052652     -0.0000000398188580931     -0.0000000364307026139     -0.0000000278437438834     -0.0000000150830205563     -0.0000000000021151498     0.0000000150787894664     0.0000000278395051684     0.0000000364264333155     0.0000000398145109938     0.0000000379952121849     0.0000000319353570705     0.0000000232811185237     0.0000000138832426550     0.0000000053239408438     -0.0000000013716248205     -0.0000000057663236124     -0.0000000078586020253     -0.0000000078968575121     -0.0000000062648975343     -0.0000000034438305347     -0.0000000000004044113 
    -0.0000000000001036421     0.0000000022490936253     0.0000000038353930378     0.0000000041671831535     0.0000000027637790380     -0.0000000007352909142     -0.0000000065474846021     -0.0000000146448048501     -0.0000000245548313792     -0.0000000351677353969     -0.0000000447285863061     -0.0000000511252460729     -0.0000000524140530789     -0.0000000473911182081     -0.0000000359991872965     -0.0000000194443515258     -0.0000000000017065966     0.0000000194409404726     0.0000000359957767228     0.0000000473876887063     0.0000000524105604390     0.0000000511216293746     0.0000000447247961254     0.0000000351637718128     0.0000000245507714303     0.0000000146408047566     0.0000000065437567116     0.0000000007320640613     -0.0000000027663093218     -0.0000000041689115175     -0.0000000038363581141     -0.0000000022495043100     -0.0000000000001036421 
    0.0000000000000533496     0.0000000016319027275     0.0000000025767743097     0.0000000021977727381     -0.0000000000477916509     -0.0000000045689182844     -0.0000000115861605240     -0.0000000210196611944     -0.0000000323042788098     -0.0000000442117076516     -0.0000000548360743166     -0.0000000618563566559     -0.0000000630535057640     -0.0000000569375221272     -0.0000000432862900179     -0.0000000234082475771     -0.0000000000012876462     0.0000000234056772046     0.0000000432837283328     0.0000000569349553146     0.0000000630508967682     0.0000000618536549793     0.0000000548332441762     0.0000000442087617824     0.0000000323012967883     0.0000000210167805735     0.0000000115835475000     0.0000000045667335310     0.0000000000461595279     -0.0000000021987947697     -0.0000000025772274981     -0.0000000016319460657     0.0000000000000533496 
    0.0000000000000939030     0.0000000013195056824     0.0000000019276634759     0.0000000011420810616     -0.0000000016436362350     -0.0000000068904270563     -0.0000000148244097881     -0.0000000253142812525     -0.0000000377089047603     -0.0000000506901059344     -0.0000000622575259499     -0.0000000699476993107     -0.0000000713078442586     -0.0000000645517860375     -0.0000000492341178523     -0.0000000266931432697     -0.0000000000008631188     0.0000000266914227664     0.0000000492324094942     0.0000000645500819713     0.0000000713061185134     0.0000000699459162369     0.0000000622556620722     0.0000000506881744439     0.0000000377069663512     0.0000000253124337096     0.0000000148227640230     0.0000000068890837204     0.0000000016426689822     -0.0000000011426410373     -0.0000000019278464410     -0.0000000013194172830     0.0000000000000939030 
    0.0000000000000631505     0.0000000011717681764     0.0000000016123618440     0.0000000006069379164     -0.0000000024933614787     -0.0000000081828204469     -0.0000000166894295340     -0.0000000278461827382     -0.0000000409469157305     -0.0000000546242127241     -0.0000000668333750551     -0.0000000750316578006     -0.0000000766064019798     -0.0000000695423246785     -0.0000000531995031949     -0.0000000289074221852     -0.0000000000004334528     0.0000000289065591102     0.0000000531986487281     0.0000000695414756072     0.0000000766055452001     0.0000000750307751264     0.0000000668324549217     0.0000000546232627805     0.0000000409459677539     0.0000000278452862896     0.0000000166886390815     0.0000000081821839074     0.0000000024929131629     -0.0000000006071837515     -0.0000000016124203013     -0.0000000011716914734     0.0000000000000631505 
    -0.0000000000000000000     0.0000000011279685469     0.0000000015170921467     0.0000000004408320300     -0.0000000027641707280     -0.0000000086032150279     -0.0000000173044414673     -0.0000000286882894829     -0.0000000420301333536     -0.0000000559475752035     -0.0000000683839429232     -0.0000000767715544404     -0.0000000784406643270     -0.0000000712892166945     -0.0000000545999813972     -0.0000000296938106299     0.0000000000000000000     0.0000000296938106299     0.0000000545999813972     0.0000000712892166945     0.0000000784406643270     0.0000000767715544404     0.0000000683839429232     0.0000000559475752035     0.0000000420301333536     0.0000000286882894829     0.0000000173044414673     0.0000000086032150279     0.0000000027641707280     -0.0000000004408320300     -0.0000000015170921467     -0.0000000011279685469     -0.0000000000000000000 
    -0.0000000000000631505     0.0000000011716914734     0.0000000016124203013     0.0000000006071837515     -0.0000000024929131629     -0.0000000081821839074     -0.0000000166886390815     -0.0000000278452862896     -0.0000000409459677539     -0.0000000546232627805     -0.0000000668324549217     -0.0000000750307751264     -0.0000000766055452001     -0.0000000695414756072     -0.0000000531986487281     -0.0000000289065591102     0.0000000000004334528     0.0000000289074221852     0.0000000531995031949     0.0000000695423246785     0.0000000766064019798     0.0000000750316578006     0.0000000668333750551     0.0000000546242127241     0.0000000409469157305     0.0000000278461827382     0.0000000166894295340     0.0000000081828204469     0.0000000024933614787     -0.0000000006069379164     -0.0000000016123618440     -0.0000000011717681764     -0.0000000000000631505 
    -0.0000000000000939030     0.0000000013194172830     0.0000000019278464410     0.0000000011426410373     -0.0000000016426689822     -0.0000000068890837204     -0.0000000148227640230     -0.0000000253124337096     -0.0000000377069663512     -0.0000000506881744439     -0.0000000622556620722     -0.0000000699459162369     -0.0000000713061185134     -0.0000000645500819713     -0.0000000492324094942     -0.0000000266914227664     0.0000000000008631188     0.0000000266931432697     0.0000000492341178523     0.0000000645517860375     0.0000000713078442586     0.0000000699476993107     0.0000000622575259499     0.0000000506901059344     0.0000000377089047603     0.0000000253142812525     0.0000000148244097881     0.0000000068904270563     0.0000000016436362350     -0.0000000011420810616     -0.0000000019276634759     -0.0000000013195056824     -0.0000000000000939030 
    -0.0000000000000533496     0.0000000016319460657     0.0000000025772274981     0.0000000021987947697     -0.0000000000461595279     -0.0000000045667335310     -0.0000000115835475000     -0.0000000210167805735     -0.0000000323012967883     -0.0000000442087617824     -0.0000000548332441762     -0.0000000618536549793     -0.0000000630508967682     -0.0000000569349553146     -0.0000000432837283328     -0.0000000234056772046     0.0000000000012876462     0.0000000234082475771     0.0000000432862900179     0.0000000569375221272     0.0000000630535057640     0.0000000618563566559     0.0000000548360743166     0.0000000442117076516     0.0000000323042788098     0.0000000210196611944     0.0000000115861605240     0.0000000045689182844     0.0000000000477916509     -0.0000000021977727381     -0.0000000025767743097     -0.0000000016319027275     -0.0000000000000533496 
    0.0000000000001036421     0.0000000022495043100     0.0000000038363581141     0.0000000041689115175     0.0000000027663093218     -0.0000000007320640613     -0.0000000065437567116     -0.0000000146408047566     -0.0000000245507714303     -0.0000000351637718128     -0.0000000447247961254     -0.0000000511216293746     -0.0000000524105604390     -0.0000000473876887063     -0.0000000359957767228     -0.0000000194409404726     0.0000000000017065966     0.0000000194443515258     0.0000000359991872965     0.0000000473911182081     0.0000000524140530789     0.0000000511252460729     0.0000000447285863061     0.0000000351677353969     0.0000000245548313792     0.0000000146448048501     0.0000000065474846021     0.0000000007352909142     -0.0000000027637790380     -0.0000000041671831535     -0.0000000038353930378     -0.0000000022490936253     0.0000000000001036421 
    0.0000000000004044113     0.0000000034438305347     0.0000000062648975343     0.0000000078968575121     0.0000000078586020253     0.0000000057663236124     0.0000000013716248205     -0.0000000053239408438     -0.0000000138832426550     -0.0000000232811185237     -0.0000000319353570705     -0.0000000379952121849     -0.0000000398145109938     -0.0000000364264333155     -0.0000000278395051684     -0.0000000150787894664     0.0000000000021151498     0.0000000150830205563     0.0000000278437438834     0.0000000364307026139     0.0000000398188580931     0.0000000379997052652     0.0000000319400638887     0.0000000232860702837     0.0000000138883958167     0.0000000053291518915     -0.0000000013665991217     -0.0000000057617910239     -0.0000000078548613237     -0.0000000078940985459     -0.0000000062631084321     -0.0000000034427575080     0.0000000000004044113 
    0.0000000000007294940     0.0000000060585971437     0.0000000112013471104     0.0000000149244673522     0.0000000172548216147     0.0000000172092394921     0.0000000143593741903     0.0000000087484043604     0.0000000009714268778     -0.0000000078468390465     -0.0000000162125633584     -0.0000000225430473011     -0.0000000255097270691     -0.0000000243519983517     -0.0000000190710931457     -0.0000000104638126276     0.0000000000024990657     0.0000000104688127517     0.0000000190761043335     0.0000000243570451888     0.0000000255148590638     0.0000000225483422269     0.0000000162181169347     0.0000000078527344632     -0.0000000009651698320     -0.0000000087418883847     -0.0000000143528631150     -0.0000000172031381620     -0.0000000172495736099     -0.0000000149203940440     -0.0000000111985393307     -0.0000000060567701052     0.0000000000007294940 
    0.0000000000004180301     0.0000000133487423384     0.0000000256038311868     0.0000000348003398455     0.0000000388255042707     0.0000000380343497259     0.0000000361956343146     0.0000000307638779348     0.0000000222918786105     0.0000000124766963961     0.0000000030153990751     -0.0000000046916752804     -0.0000000096609210276     -0.0000000113774733964     -0.0000000098519795593     -0.0000000056761976416     0.0000000000028339147     0.0000000056818659625     0.0000000098576558313     0.0000000113831838787     0.0000000096667222121     0.0000000046976634407     -0.0000000030090881262     -0.0000000124699137725     -0.0000000222845293006     -0.0000000307560198538     -0.0000000361875627534     -0.0000000380266198345     -0.0000000388189567582     -0.0000000347955970092     -0.0000000256010051539     -0.0000000133473672620     0.0000000000004180301 
    -0.0000000000008713270     0.0000000245891382369     0.0000000500728307398     0.0000000736515367600     0.0000000887768398552     0.0000000896573046483     0.0000000777537130397     0.0000000653922763444     0.0000000534741028791     0.0000000397122637581     0.0000000266438943831     0.0000000157188212047     0.0000000075377791993     0.0000000022252538501     -0.0000000003893422340     -0.0000000008183805707     0.0000000000030890566     0.0000000008245553627     0.0000000003955166845     -0.0000000022190499553     -0.0000000075314748030     -0.0000000157122907513     -0.0000000266369544383     -0.0000000397047038828     -0.0000000534657746706     -0.0000000653832305684     -0.0000000777444763206     -0.0000000896489792351     -0.0000000887704984757     -0.0000000736478660293     -0.0000000500718542994     -0.0000000245901502774     -0.0000000000008713270 
    -0.0000000000030900295     0.0000000365144855235     0.0000000796080564377     0.0000001271041551923     0.0000001663472017029     0.0000001815277719013     0.0000001655862080671     0.0000001289093610529     0.0000000985797685292     0.0000000763119398608     0.0000000557670112871     0.0000000388880036251     0.0000000258423426863     0.0000000160982987172     0.0000000090280199179     0.0000000039586807953     0.0000000000032332633     -0.0000000039522222147     -0.0000000090215717526     -0.0000000160918263821     -0.0000000258357562701     -0.0000000388811442821     -0.0000000557596538218     -0.0000000763038413918     -0.0000000985707869360     -0.0000001288998416730     -0.0000001655772512330     -0.0000001815206579149     -0.0000001663430616670     -0.0000001271035985143     -0.0000000796109125398     -0.0000000365197818142     -0.0000000000030900295 
    -0.0000000000057330221     0.0000000444301480833     0.0000001061727174396     0.0000001860449689544     0.0000002637276387951     0.0000003088335882267     0.0000003007130198264     0.0000002440443321899     0.0000001709091229022     0.0000001243802667269     0.0000000913134230263     0.0000000649570758651     0.0000000450024454524     0.0000000298869447248     0.0000000181069788777     0.0000000084972160734     0.0000000000032387498     -0.0000000084907501667     -0.0000000181005317509     -0.0000000298804787564     -0.0000000449958563215     -0.0000000649501813523     -0.0000000913059802877     -0.0000001243720509847     -0.0000001709002221917     -0.0000002440357205960     -0.0000003007060127889     -0.0000003088295248132     -0.0000002637275141147     -0.0000001860491133666     -0.0000001061806586553     -0.0000000444406910119     -0.0000000000057330221 
    -0.0000000000079849431     0.0000000437539227545     0.0000001209953361344     0.0000002385638946587     0.0000003676149655749     0.0000004588507018356     0.0000004725790918331     0.0000004039340878369     0.0000002882687342523     0.0000001864226528054     0.0000001333731754079     0.0000000937534984411     0.0000000647361999120     0.0000000433132145439     0.0000000266374818834     0.0000000126863418108     0.0000000000030835627     -0.0000000126801877378     -0.0000000266313510584     -0.0000000433070712181     -0.0000000647299386940     -0.0000000937469373364     -0.0000001333660914315     -0.0000001864149139789     -0.0000002882609967203     -0.0000004039276074692     -0.0000004725753030216     -0.0000004588508372236     -0.0000003676196742251     -0.0000002385730594870     -0.0000001210081445013     -0.0000000437690834765     -0.0000000000079849431 
    -0.0000000000090879895     0.0000000322931876679     0.0000001184383237557     0.0000002742352768768     0.0000004626817316156     0.0000006128876164568     0.0000006616814622034     0.0000005908743949119     0.0000004375347135575     0.0000002756924617442     0.0000001803148683837     0.0000001243410661176     0.0000000845275824974     0.0000000561015469091     0.0000000344763119249     0.0000000164633199292     0.0000000000027547221     -0.0000000164578225994     -0.0000000344708378739     -0.0000000560960678035     -0.0000000845220081671     -0.0000001243352425450     -0.0000001803086278035     -0.0000002756859399011     -0.0000004375288994209     -0.0000005908706533133     -0.0000006616811930605     -0.0000006128917877204     -0.0000004626905350926     -0.0000002742481289499     -0.0000001184541573913     -0.0000000323107862769     -0.0000000000090879895 
    -0.0000000000086536045     0.0000000119882781855     0.0000000994621003437     0.0000002889402324327     0.0000005368874493953     0.0000007510354466455     0.0000008431073459967     0.0000007791609864940     0.0000005961357942991     0.0000003803489145417     0.0000002282979111773     0.0000001545422398940     0.0000001033059480362     0.0000000677648305387     0.0000000414152468283     0.0000000197510262844     0.0000000000022532279     -0.0000000197465292576     -0.0000000414107694043     -0.0000000677603548058     -0.0000001033014101183     -0.0000001545375320957     -0.0000002282929372801     -0.0000003803440737680     -0.0000005961321012594     -0.0000007791597246164     -0.0000008431097084290     -0.0000007510420619173     -0.0000005368981193257     -0.0000002889540845299     -0.0000000994780153561     -0.0000000120052648596     -0.0000000000086536045 
    -0.0000000000067265083     -0.0000000112013767488     0.0000000721880169103     0.0000002870291643244     0.0000005855293000396     0.0000008575184760380     0.0000009921479415413     0.0000009401289171872     0.0000007368397880609     0.0000004785521078282     0.0000002761959410161     0.0000001808318413454     0.0000001192717268270     0.0000000774318258642     0.0000000470495934463     0.0000000223883596760     0.0000000000015986622     -0.0000000223851683961     -0.0000000470464158094     -0.0000000774286534025     -0.0000001192685232124     -0.0000001808285463722     -0.0000002761925365072     -0.0000004785490364913     -0.0000007368378712631     -0.0000009401291499506     -0.0000009921511759562     -0.0000008575250371109     -0.0000005855388221489     -0.0000002870407962990     -0.0000000722008350411     0.0000000111880509305     -0.0000000000067265083 
    -0.0000000000036652166     -0.0000000294826069708     0.0000000486742887087     0.0000002788413839883     0.0000006110744691865     0.0000009234306590831     0.0000010893592298717     0.0000010482725164282     0.0000008337198085438     0.0000005484023595467     0.0000003130020211531     0.0000001989948545891     0.0000001301719338914     0.0000000839406813086     0.0000000507987863919     0.0000000241305374915     0.0000000000008297767     -0.0000000241288807656     -0.0000000507971365108     -0.0000000839390356071     -0.0000001301702773623     -0.0000001989931628385     -0.0000003130003096142     -0.0000005484009052809     -0.0000008337190711706     -0.0000010482730375640     -0.0000010893614480767     -0.0000009234346962749     -0.0000006110800561171     -0.0000002788480010943     -0.0000000486814167294     0.0000000294753068625     -0.0000000000036652166 
    0.0000000000000000000     -0.0000000364016708695     0.0000000394560828371     0.0000002746919495488     0.0000006187440128422     0.0000009455826312164     0.0000011230325702336     0.0000010863376797742     0.0000008682486214990     0.0000005736801492160     0.0000003267660286955     0.0000002055090417785     0.0000001340628752017     0.0000000862503560820     0.0000000521221685090     0.0000000247432197900     -0.0000000000000000000     -0.0000000247432197900     -0.0000000521221685090     -0.0000000862503560820     -0.0000001340628752017     -0.0000002055090417785     -0.0000003267660286955     -0.0000005736801492160     -0.0000008682486214990     -0.0000010863376797742     -0.0000011230325702336     -0.0000009455826312164     -0.0000006187440128422     -0.0000002746919495488     -0.0000000394560828371     0.0000000364016708695     0.0000000000000000000 
    0.0000000000000000000     -0.0000001790966959351     -0.0000001899217014859     0.0000000437057498882     0.0000004607015902772     0.0000008934997710952     0.0000011616232488478     0.0000011700359840143     0.0000009507910281481     0.0000006330474843734     0.0000003758810752344     0.0000002523268159974     0.0000001690807268987     0.0000001111296644820     0.0000000680952322954     0.0000000325539528707     -0.0000000000000000000     -0.0000000325539528707     -0.0000000680952322954     -0.0000001111296644820     -0.0000001690807268987     -0.0000002523268159974     -0.0000003758810752344     -0.0000006330474843734     -0.0000009507910281481     -0.0000011700359840143     -0.0000011616232488478     -0.0000008934997710952     -0.0000004607015902772     -0.0000000437057498882     0.0000001899217014859     0.0000001790966959351     0.0000000000000000000 
    0.0000000000031879338     -0.0000001661509221555     -0.0000001707550881411     0.0000000583942554241     0.0000004609755952630     0.0000008749054930519     0.0000011272314038565     0.0000011285721190040     0.0000009123261549716     0.0000006051032076833     0.0000003616897985534     0.0000002446668036211     0.0000001644095556698     0.0000001083018139064     0.0000000664499400022     0.0000000317846659323     -0.0000000000007699630     -0.0000000317861971154     -0.0000000664514474776     -0.0000001083032914607     -0.0000001644110120873     -0.0000002446682615317     -0.0000003616912693695     -0.0000006051044978693     -0.0000009123268804072     -0.0000011285718195755     -0.0000011272296951065     -0.0000008749022439956     -0.0000004609709943641     -0.0000000583887029253     0.0000001707611734944     0.0000001661572386186     0.0000000000031879338 
    0.0000000000057809119     -0.0000001310970684000     -0.0000001196248724475     0.0000000956828516259     0.0000004571372768856     0.0000008184094560805     0.0000010275877522894     0.0000010107202123208     0.0000008045172433535     0.0000005281674474557     0.0000003242982478841     0.0000002231960194175     0.0000001512317219691     0.0000001002649594335     0.0000000617450775763     0.0000000295771451853     -0.0000000000014843069     -0.0000000295800967114     -0.0000000617479838991     -0.0000001002678121180     -0.0000001512345449064     -0.0000002231988678809     -0.0000003243011719965     -0.0000005281701694293     -0.0000008045190817982     -0.0000010107203271390     -0.0000010275854016017     -0.0000008184043135996     -0.0000004571295747563     -0.0000000956732297398     0.0000001196356779754     0.0000001311084602111     0.0000000000057809119 
    0.0000000000072816736     -0.0000000839181815147     -0.0000000530706631933     0.0000001385439820882     0.0000004383976851718     0.0000007240256372513     0.0000008738721698575     0.0000008352317924186     0.0000006483890262247     0.0000004209846579078     0.0000002747522962856     0.0000001917843836265     0.0000001316561949434     0.0000000881250065667     0.0000000545407719038     0.0000000261695232908     -0.0000000000020918351     -0.0000000261736826135     -0.0000000545448688862     -0.0000000881290358418     -0.0000001316602022898     -0.0000001917884670205     -0.0000002747565637765     -0.0000004209889299865     -0.0000006483924811327     -0.0000008352333567390     -0.0000008738708152465     -0.0000007240207676470     -0.0000004383893620122     -0.0000001385328268349     0.0000000530837766166     0.0000000839323953325     0.0000000000072816736 
    0.0000000000074049477     -0.0000000371727349207     0.0000000088435928953     0.0000001678806109941     0.0000003952836717699     0.0000005969876982496     0.0000006854020562939     0.0000006301049997362     0.0000004735522474266     0.0000003089893965227     0.0000002184244651711     0.0000001551292571954     0.0000001081672629962     0.0000000731353642495     0.0000000454456483294     0.0000000218124295227     -0.0000000000025528395     -0.0000000218175056089     -0.0000000454506510910     -0.0000000731402947327     -0.0000001081721894484     -0.0000001551343191310     -0.0000002184298350480     -0.0000003089951049134     -0.0000004735575702175     -0.0000006301088086389     -0.0000006854031584910     -0.0000005969852118257     -0.0000003952773170987     -0.0000001678707442563     -0.0000000088310209239     0.0000000371869810879     0.0000000000074049477 
    0.0000000000062020105     -0.0000000014135390208     0.0000000504252380821     0.0000001713445023069     0.0000003265074251211     0.0000004504871001493     0.0000004877342990848     0.0000004272424932280     0.0000003113758625625     0.0000002175649997949     0.0000001622545665959     0.0000001172577611005     0.0000000828101844123     0.0000000562665230729     0.0000000348957328056     0.0000000166738797332     -0.0000000000028461764     -0.0000000166795401763     -0.0000000349013163401     -0.0000000562720370901     -0.0000000828157119043     -0.0000001172634674994     -0.0000001622606727670     -0.0000002175716923390     -0.0000003113828132393     -0.0000004272486773988     -0.0000004877385065672     -0.0000004504882363492     -0.0000003265048311964     -0.0000001713381402819     -0.0000000504156894884     0.0000000014252033366     0.0000000000062020105 
    0.0000000000041183108     0.0000000183008409005     0.0000000657420435163     0.0000001481509778329     0.0000002409839729384     0.0000003039276973182     0.0000003077116453992     0.0000002557744914683     0.0000001880997414060     0.0000001471273435465     0.0000001109841177638     0.0000000807649888101     0.0000000568722611698     0.0000000381005851853     0.0000000231334955120     0.0000000108403864695     -0.0000000000029712678     -0.0000000108462982871     -0.0000000231393348318     -0.0000000381063632969     -0.0000000568780635274     -0.0000000807709835904     -0.0000001109905423064     -0.0000001471344413733     -0.0000001881075988412     -0.0000002557824331293     -0.0000003077185665585     -0.0000003039324236617     -0.0000002409855689565     -0.0000001481490432671     -0.0000000657368770265     -0.0000000182934146432     0.0000000000041183108 
    0.0000000000018688356     0.0000000231500538615     0.0000000590257767246     0.0000001078068143300     0.0000001542795877948     0.0000001775731247675     0.0000001674063881310     0.0000001362744508724     0.0000001131069210762     0.0000000896621340393     0.0000000666527504894     0.0000000468673524801     0.0000000310396846223     0.0000000190046201747     0.0000000103448188950     0.0000000043902302061     -0.0000000000029437644     -0.0000000043960915659     -0.0000000103506196015     -0.0000000190103730379     -0.0000000310454672628     -0.0000000468733162358     -0.0000000666591167240     -0.0000000896691542304     -0.0000001131147753825     -0.0000001362830271567     -0.0000001674148252650     -0.0000001775802992720     -0.0000001542844613457     -0.0000001078087707578     -0.0000000590248750902     -0.0000000231470745892     0.0000000000018688356 
    0.0000000000001342896     0.0000000185514938364     0.0000000406868699956     0.0000000645390118316     0.0000000824285986569     0.0000000869237840466     0.0000000797766205324     0.0000000726470624109     0.0000000603747306927     0.0000000448541381363     0.0000000293192224635     0.0000000158917061142     0.0000000057252830672     -0.0000000006514851130     -0.0000000032080626148     -0.0000000025440767802     -0.0000000000027886094     0.0000000025385189749     0.0000000032025485802     0.0000000006460009797     -0.0000000057308034230     -0.0000000158973886278     -0.0000000293252518864     -0.0000000448607301524     -0.0000000603820537014     -0.0000000726551127716     -0.0000000797850701155     -0.0000000869317223286     -0.0000000824350413685     -0.0000000645432940437     -0.0000000406889058050     -0.0000000185518472423     0.0000000000001342896 
    -0.0000000000007275565     0.0000000110380822898     0.0000000219808508282     0.0000000312952030650     0.0000000368572880391     0.0000000394781934749     0.0000000390726247859     0.0000000331662893226     0.0000000229422944421     0.0000000104681066616     -0.0000000019517564610     -0.0000000122236744889     -0.0000000187143645312     -0.0000000204257638987     -0.0000000171808941262     -0.0000000097842268536     -0.0000000000025348600     0.0000000097791694591     0.0000000171758626638     0.0000000204207422208     0.0000000187092952719     0.0000000122184547957     0.0000000019462436889     -0.0000000104740679613     -0.0000000229488109960     -0.0000000331733278717     -0.0000000390799319812     -0.0000000394852949717     -0.0000000368635175864     -0.0000000312999643858     -0.0000000219840016754     -0.0000000110399982771     -0.0000000000007275565 
    -0.0000000000007509235     0.0000000058109182750     0.0000000111735008550     0.0000000157725868800     0.0000000186184684346     0.0000000186030842729     0.0000000148920977138     0.0000000072862282830     -0.0000000035621447069     -0.0000000161438336524     -0.0000000283004465554     -0.0000000376178286214     -0.0000000419385693700     -0.0000000398819991326     -0.0000000312432990212     -0.0000000171652689278     -0.0000000000022130045     0.0000000171608496128     0.0000000312388911823     0.0000000398775834149     0.0000000419340923977     0.0000000376132033751     0.0000000282955671914     0.0000000161386078092     0.0000000035565429324     -0.0000000072921162086     -0.0000000148980260358     -0.0000000186086713028     -0.0000000186232958692     -0.0000000157763552163     -0.0000000111761686612     -0.0000000058127388746     -0.0000000000007509235 
    -0.0000000000003459828     0.0000000041148703170     0.0000000075360387332     0.0000000095435401481     0.0000000093964880250     0.0000000063915806273     -0.0000000000020400262     -0.0000000099146357176     -0.0000000227860566966     -0.0000000371430309949     -0.0000000506243315034     -0.0000000603583628230     -0.0000000636326511611     -0.0000000586510883066     -0.0000000451327343139     -0.0000000245634663581     -0.0000000000018523024     0.0000000245597651680     0.0000000451290361609     0.0000000586473717309     0.0000000636288647741     0.0000000603544301688     0.0000000506201746791     0.0000000371386082727     0.0000000227814017725     0.0000000099098843364     -0.0000000000025694315     -0.0000000063957439403     -0.0000000093999121172     -0.0000000095460435495     -0.0000000075376372419     -0.0000000041158057117     -0.0000000000003459828 
    -0.0000000000000501818     0.0000000031804699475     0.0000000054969145220     0.0000000061080835223     0.0000000042307338456     -0.0000000008057971256     -0.0000000094606359735     -0.0000000217877217976     -0.0000000371406880989     -0.0000000538957806798     -0.0000000694052201073     -0.0000000803410126042     -0.0000000834198405879     -0.0000000763258962991     -0.0000000585472304887     -0.0000000318269150119     -0.0000000000014766481     0.0000000318239639408     0.0000000585442798373     0.0000000763229255020     0.0000000834168026000     0.0000000803378415327     0.0000000694018590809     0.0000000538922201355     0.0000000371369954295     0.0000000217840476305     0.0000000094571939299     0.0000000008028219771     -0.0000000042330425567     -0.0000000061096227636     -0.0000000054977272316     -0.0000000031807605360     -0.0000000000000501818 
    0.0000000000000949902     0.0000000026813350210     0.0000000044114429727     0.0000000042433504991     0.0000000012819783915     -0.0000000052197614613     -0.0000000157244652023     -0.0000000302121261491     -0.0000000479102246788     -0.0000000670317614964     -0.0000000846934894917     -0.0000000971866627300     -0.0000001006723315518     -0.0000000922182261592     -0.0000000709133018380     -0.0000000386323347878     -0.0000000000011008488     0.0000000386301351906     0.0000000709111033833     0.0000000922160123294     0.0000001006700641793     0.0000000971842900243     0.0000000846909719792     0.0000000670291048821     0.0000000479075004020     0.0000000302094674958     0.0000000157220416388     0.0000000052177424105     -0.0000000012834614616     -0.0000000042442400708     -0.0000000044117844613     -0.0000000026812865955     0.0000000000000949902 
    0.0000000000001233193     0.0000000024289655229     0.0000000038483497044     0.0000000032258633196     -0.0000000004393433355     -0.0000000079784485331     -0.0000000198705919817     -0.0000000360349044079     -0.0000000555954181598     -0.0000000766545808002     -0.0000000961848812235     -0.0000001102036189288     -0.0000001143901636277     -0.0000001051944911262     -0.0000000812281089078     -0.0000000443873646001     -0.0000000000007302550     0.0000000443859060531     0.0000000812266525658     0.0000001051930261831     0.0000001143886641854     0.0000001102020503738     0.0000000961832193313     0.0000000766528347597     0.0000000555936430486     0.0000000360331950679     0.0000000198690623816     0.0000000079772069234     0.0000000004384697636     -0.0000000032263370458     -0.0000000038484572514     -0.0000000024288132037     0.0000000000001233193 
    0.0000000000000788613     0.0000000023125782412     0.0000000035772322230     0.0000000027056670168     -0.0000000013725824439     -0.0000000095444743393     -0.0000000223002931873     -0.0000000395199437280     -0.0000000602657390425     -0.0000000825855986799     -0.0000001033849732357     -0.0000001185203517369     -0.0000001233390248761     -0.0000001138241253092     -0.0000000881930121846     -0.0000000483109661142     -0.0000000000003641267     0.0000000483102390977     0.0000000881922869697     0.0000001138233967833     0.0000001233382802977     0.0000001185195741954     0.0000001033841515175     0.0000000825847388052     0.0000000602648700082     0.0000000395191136019     0.0000000222995581917     0.0000000095438866725     0.0000000013721800620     -0.0000000027058694284     -0.0000000035772517051     -0.0000000023124677489     0.0000000000000788613 
    -0.0000000000000000000     0.0000000022789225270     0.0000000034961628343     0.0000000025438157855     -0.0000000016723845782     -0.0000000100582491656     -0.0000000231076158253     -0.0000000406869982830     -0.0000000618387806916     -0.0000000845956027149     -0.0000001058449124727     -0.0000001213907791763     -0.0000001264615880884     -0.0000001168656613341     -0.0000000906670660650     -0.0000000497114431496     0.0000000000000000000     0.0000000497114431496     0.0000000906670660650     0.0000001168656613341     0.0000001264615880884     0.0000001213907791763     0.0000001058449124727     0.0000000845956027149     0.0000000618387806916     0.0000000406869982830     0.0000000231076158253     0.0000000100582491656     0.0000000016723845782     -0.0000000025438157855     -0.0000000034961628343     -0.0000000022789225270     -0.0000000000000000000 
    -0.0000000000000788613     0.0000000023124677489     0.0000000035772517051     0.0000000027058694284     -0.0000000013721800620     -0.0000000095438866725     -0.0000000222995581917     -0.0000000395191136019     -0.0000000602648700082     -0.0000000825847388052     -0.0000001033841515175     -0.0000001185195741954     -0.0000001233382802977     -0.0000001138233967833     -0.0000000881922869697     -0.0000000483102390977     0.0000000000003641267     0.0000000483109661142     0.0000000881930121846     0.0000001138241253092     0.0000001233390248761     0.0000001185203517369     0.0000001033849732357     0.0000000825855986799     0.0000000602657390425     0.0000000395199437280     0.0000000223002931873     0.0000000095444743393     0.0000000013725824439     -0.0000000027056670168     -0.0000000035772322230     -0.0000000023125782412     -0.0000000000000788613 
    -0.0000000000001233193     0.0000000024288132037     0.0000000038484572514     0.0000000032263370458     -0.0000000004384697636     -0.0000000079772069234     -0.0000000198690623816     -0.0000000360331950679     -0.0000000555936430486     -0.0000000766528347597     -0.0000000961832193313     -0.0000001102020503738     -0.0000001143886641854     -0.0000001051930261831     -0.0000000812266525658     -0.0000000443859060531     0.0000000000007302550     0.0000000443873646001     0.0000000812281089078     0.0000001051944911262     0.0000001143901636277     0.0000001102036189288     0.0000000961848812235     0.0000000766545808002     0.0000000555954181598     0.0000000360349044079     0.0000000198705919817     0.0000000079784485331     0.0000000004393433355     -0.0000000032258633196     -0.0000000038483497044     -0.0000000024289655229     -0.0000000000001233193 
    -0.0000000000000949902     0.0000000026812865955     0.0000000044117844613     0.0000000042442400708     0.0000000012834614616     -0.0000000052177424105     -0.0000000157220416388     -0.0000000302094674958     -0.0000000479075004020     -0.0000000670291048821     -0.0000000846909719792     -0.0000000971842900243     -0.0000001006700641793     -0.0000000922160123294     -0.0000000709111033833     -0.0000000386301351906     0.0000000000011008488     0.0000000386323347878     0.0000000709133018380     0.0000000922182261592     0.0000001006723315518     0.0000000971866627300     0.0000000846934894917     0.0000000670317614964     0.0000000479102246788     0.0000000302121261491     0.0000000157244652023     0.0000000052197614613     -0.0000000012819783915     -0.0000000042433504991     -0.0000000044114429727     -0.0000000026813350210     -0.0000000000000949902 
    0.0000000000000501818     0.0000000031807605360     0.0000000054977272316     0.0000000061096227636     0.0000000042330425567     -0.0000000008028219771     -0.0000000094571939299     -0.0000000217840476305     -0.0000000371369954295     -0.0000000538922201355     -0.0000000694018590809     -0.0000000803378415327     -0.0000000834168026000     -0.0000000763229255020     -0.0000000585442798373     -0.0000000318239639408     0.0000000000014766481     0.0000000318269150119     0.0000000585472304887     0.0000000763258962991     0.0000000834198405879     0.0000000803410126042     0.0000000694052201073     0.0000000538957806798     0.0000000371406880989     0.0000000217877217976     0.0000000094606359735     0.0000000008057971256     -0.0000000042307338456     -0.0000000061080835223     -0.0000000054969145220     -0.0000000031804699475     0.0000000000000501818 
    0.0000000000003459828     0.0000000041158057117     0.0000000075376372419     0.0000000095460435495     0.0000000093999121172     0.0000000063957439403     0.0000000000025694315     -0.0000000099098843364     -0.0000000227814017725     -0.0000000371386082727     -0.0000000506201746791     -0.0000000603544301688     -0.0000000636288647741     -0.0000000586473717309     -0.0000000451290361609     -0.0000000245597651680     0.0000000000018523024     0.0000000245634663581     0.0000000451327343139     0.0000000586510883066     0.0000000636326511611     0.0000000603583628230     0.0000000506243315034     0.0000000371430309949     0.0000000227860566966     0.0000000099146357176     0.0000000000020400262     -0.0000000063915806273     -0.0000000093964880250     -0.0000000095435401481     -0.0000000075360387332     -0.0000000041148703170     0.0000000000003459828 
    0.0000000000007509235     0.0000000058127388746     0.0000000111761686612     0.0000000157763552163     0.0000000186232958692     0.0000000186086713028     0.0000000148980260358     0.0000000072921162086     -0.0000000035565429324     -0.0000000161386078092     -0.0000000282955671914     -0.0000000376132033751     -0.0000000419340923977     -0.0000000398775834149     -0.0000000312388911823     -0.0000000171608496128     0.0000000000022130045     0.0000000171652689278     0.0000000312432990212     0.0000000398819991326     0.0000000419385693700     0.0000000376178286214     0.0000000283004465554     0.0000000161438336524     0.0000000035621447069     -0.0000000072862282830     -0.0000000148920977138     -0.0000000186030842729     -0.0000000186184684346     -0.0000000157725868800     -0.0000000111735008550     -0.0000000058109182750     0.0000000000007509235 
    0.0000000000007275565     0.0000000110399982771     0.0000000219840016754     0.0000000312999643858     0.0000000368635175864     0.0000000394852949717     0.0000000390799319812     0.0000000331733278717     0.0000000229488109960     0.0000000104740679613     -0.0000000019462436889     -0.0000000122184547957     -0.0000000187092952719     -0.0000000204207422208     -0.0000000171758626638     -0.0000000097791694591     0.0000000000025348600     0.0000000097842268536     0.0000000171808941262     0.0000000204257638987     0.0000000187143645312     0.0000000122236744889     0.0000000019517564610     -0.0000000104681066616     -0.0000000229422944421     -0.0000000331662893226     -0.0000000390726247859     -0.0000000394781934749     -0.0000000368572880391     -0.0000000312952030650     -0.0000000219808508282     -0.0000000110380822898     0.0000000000007275565 
    -0.0000000000001342896     0.0000000185518472423     0.0000000406889058050     0.0000000645432940437     0.0000000824350413685     0.0000000869317223286     0.0000000797850701155     0.0000000726551127716     0.0000000603820537014     0.0000000448607301524     0.0000000293252518864     0.0000000158973886278     0.0000000057308034230     -0.0000000006460009797     -0.0000000032025485802     -0.0000000025385189749     0.0000000000027886094     0.0000000025440767802     0.0000000032080626148     0.0000000006514851130     -0.0000000057252830672     -0.0000000158917061142     -0.0000000293192224635     -0.0000000448541381363     -0.0000000603747306927     -0.0000000726470624109     -0.0000000797766205324     -0.0000000869237840466     -0.0000000824285986569     -0.0000000645390118316     -0.0000000406868699956     -0.0000000185514938364     -0.0000000000001342896 
    -0.0000000000018688356     0.0000000231470745892     0.0000000590248750902     0.0000001078087707578     0.0000001542844613457     0.0000001775802992720     0.0000001674148252650     0.0000001362830271567     0.0000001131147753825     0.0000000896691542304     0.0000000666591167240     0.0000000468733162358     0.0000000310454672628     0.0000000190103730379     0.0000000103506196015     0.0000000043960915659     0.0000000000029437644     -0.0000000043902302061     -0.0000000103448188950     -0.0000000190046201747     -0.0000000310396846223     -0.0000000468673524801     -0.0000000666527504894     -0.0000000896621340393     -0.0000001131069210762     -0.0000001362744508724     -0.0000001674063881310     -0.0000001775731247675     -0.0000001542795877948     -0.0000001078068143300     -0.0000000590257767246     -0.0000000231500538615     -0.0000000000018688356 
    -0.0000000000041183108     0.0000000182934146432     0.0000000657368770265     0.0000001481490432671     0.0000002409855689565     0.0000003039324236617     0.0000003077185665585     0.0000002557824331293     0.0000001881075988412     0.0000001471344413733     0.0000001109905423064     0.0000000807709835904     0.0000000568780635274     0.0000000381063632969     0.0000000231393348318     0.0000000108462982871     0.0000000000029712678     -0.0000000108403864695     -0.0000000231334955120     -0.0000000381005851853     -0.0000000568722611698     -0.0000000807649888101     -0.0000001109841177638     -0.0000001471273435465     -0.0000001880997414060     -0.0000002557744914683     -0.0000003077116453992     -0.0000003039276973182     -0.0000002409839729384     -0.0000001481509778329     -0.0000000657420435163     -0.0000000183008409005     -0.0000000000041183108 
    -0.0000000000062020105     -0.0000000014252033366     0.0000000504156894884     0.0000001713381402819     0.0000003265048311964     0.0000004504882363492     0.0000004877385065672     0.0000004272486773988     0.0000003113828132393     0.0000002175716923390     0.0000001622606727670     0.0000001172634674994     0.0000000828157119043     0.0000000562720370901     0.0000000349013163401     0.0000000166795401763     0.0000000000028461764     -0.0000000166738797332     -0.0000000348957328056     -0.0000000562665230729     -0.0000000828101844123     -0.0000001172577611005     -0.0000001622545665959     -0.0000002175649997949     -0.0000003113758625625     -0.0000004272424932280     -0.0000004877342990848     -0.0000004504871001493     -0.0000003265074251211     -0.0000001713445023069     -0.0000000504252380821     0.0000000014135390208     -0.0000000000062020105 
    -0.0000000000074049477     -0.0000000371869810879     0.0000000088310209239     0.0000001678707442563     0.0000003952773170987     0.0000005969852118257     0.0000006854031584910     0.0000006301088086389     0.0000004735575702175     0.0000003089951049134     0.0000002184298350480     0.0000001551343191310     0.0000001081721894484     0.0000000731402947327     0.0000000454506510910     0.0000000218175056089     0.0000000000025528395     -0.0000000218124295227     -0.0000000454456483294     -0.0000000731353642495     -0.0000001081672629962     -0.0000001551292571954     -0.0000002184244651711     -0.0000003089893965227     -0.0000004735522474266     -0.0000006301049997362     -0.0000006854020562939     -0.0000005969876982496     -0.0000003952836717699     -0.0000001678806109941     -0.0000000088435928953     0.0000000371727349207     -0.0000000000074049477 
    -0.0000000000072816736     -0.0000000839323953325     -0.0000000530837766166     0.0000001385328268349     0.0000004383893620122     0.0000007240207676470     0.0000008738708152465     0.0000008352333567390     0.0000006483924811327     0.0000004209889299865     0.0000002747565637765     0.0000001917884670205     0.0000001316602022898     0.0000000881290358418     0.0000000545448688862     0.0000000261736826135     0.0000000000020918351     -0.0000000261695232908     -0.0000000545407719038     -0.0000000881250065667     -0.0000001316561949434     -0.0000001917843836265     -0.0000002747522962856     -0.0000004209846579078     -0.0000006483890262247     -0.0000008352317924186     -0.0000008738721698575     -0.0000007240256372513     -0.0000004383976851718     -0.0000001385439820882     0.0000000530706631933     0.0000000839181815147     -0.0000000000072816736 
    -0.0000000000057809119     -0.0000001311084602111     -0.0000001196356779754     0.0000000956732297398     0.0000004571295747563     0.0000008184043135996     0.0000010275854016017     0.0000010107203271390     0.0000008045190817982     0.0000005281701694293     0.0000003243011719965     0.0000002231988678809     0.0000001512345449064     0.0000001002678121180     0.0000000617479838991     0.0000000295800967114     0.0000000000014843069     -0.0000000295771451853     -0.0000000617450775763     -0.0000001002649594335     -0.0000001512317219691     -0.0000002231960194175     -0.0000003242982478841     -0.0000005281674474557     -0.0000008045172433535     -0.0000010107202123208     -0.0000010275877522894     -0.0000008184094560805     -0.0000004571372768856     -0.0000000956828516259     0.0000001196248724475     0.0000001310970684000     -0.0000000000057809119 
    -0.0000000000031879338     -0.0000001661572386186     -0.0000001707611734944     0.0000000583887029253     0.0000004609709943641     0.0000008749022439956     0.0000011272296951065     0.0000011285718195755     0.0000009123268804072     0.0000006051044978693     0.0000003616912693695     0.0000002446682615317     0.0000001644110120873     0.0000001083032914607     0.0000000664514474776     0.0000000317861971154     0.0000000000007699630     -0.0000000317846659323     -0.0000000664499400022     -0.0000001083018139064     -0.0000001644095556698     -0.0000002446668036211     -0.0000003616897985534     -0.0000006051032076833     -0.0000009123261549716     -0.0000011285721190040     -0.0000011272314038565     -0.0000008749054930519     -0.0000004609755952630     -0.0000000583942554241     0.0000001707550881411     0.0000001661509221555     -0.0000000000031879338 
    0.0000000000000000000     -0.0000001790966959351     -0.0000001899217014859     0.0000000437057498882     0.0000004607015902772     0.0000008934997710952     0.0000011616232488478     0.0000011700359840143     0.0000009507910281481     0.0000006330474843734     0.0000003758810752344     0.0000002523268159974     0.0000001690807268987     0.0000001111296644820     0.0000000680952322954     0.0000000325539528707     -0.0000000000000000000     -0.0000000325539528707     -0.0000000680952322954     -0.0000001111296644820     -0.0000001690807268987     -0.0000002523268159974     -0.0000003758810752344     -0.0000006330474843734     -0.0000009507910281481     -0.0000011700359840143     -0.0000011616232488478     -0.0000008934997710952     -0.0000004607015902772     -0.0000000437057498882     0.0000001899217014859     0.0000001790966959351     0.0000000000000000000 
    -0.0000000000000000000     -0.0000003848437717886     -0.0000005528284072206     -0.0000003989306522335     0.0000000163479824670     0.0000005036116191380     0.0000008523507092350     0.0000009429624377905     0.0000007962371543670     0.0000005445209385845     0.0000003589579531696     0.0000002554242335252     0.0000001777982328234     0.0000001202989262903     0.0000000750697696051     0.0000000362143117522     0.0000000000000000000     -0.0000000362143117522     -0.0000000750697696051     -0.0000001202989262903     -0.0000001777982328234     -0.0000002554242335252     -0.0000003589579531696     -0.0000005445209385845     -0.0000007962371543670     -0.0000009429624377905     -0.0000008523507092350     -0.0000005036116191380     -0.0000000163479824670     0.0000003989306522335     0.0000005528284072206     0.0000003848437717886     -0.0000000000000000000 
    0.0000000000025295675     -0.0000003645894569260     -0.0000005208230928925     -0.0000003686859771614     0.0000000321010874414     0.0000004984507199802     0.0000008284863537224     0.0000009092167864726     0.0000007633881566416     0.0000005210124405126     0.0000003477086463746     0.0000002481026695650     0.0000001731785816066     0.0000001174148392130     0.0000000733532519006     0.0000000354014689962     -0.0000000000006948050     -0.0000000354028433226     -0.0000000733545838741     -0.0000001174161128103     -0.0000001731797987455     -0.0000002481038509663     -0.0000003477098172390     -0.0000005210135207097     -0.0000007633888574673     -0.0000009092167505987     -0.0000008284852683593     -0.0000004984484508447     -0.0000000320977334117     0.0000003686901535899     0.0000005208277932333     0.0000003645944320619     0.0000000000025295675 
    0.0000000000045054983     -0.0000003089659069189     -0.0000004335402753635     -0.0000002875607939748     0.0000000719100397061     0.0000004798410085503     0.0000007585272107726     0.0000008131435907173     0.0000006715023768527     0.0000004567864089266     0.0000003161214299208     0.0000002274245193370     0.0000001600187501350     0.0000001091235977487     0.0000000683825553426     0.0000000330380599111     -0.0000000000013370404     -0.0000000330407044938     -0.0000000683851192079     -0.0000001091260533344     -0.0000001600211071155     -0.0000002274268270346     -0.0000003161237526934     -0.0000004567886672648     -0.0000006715040768606     -0.0000008131440862546     -0.0000007585259042005     -0.0000004798375871020     -0.0000000719045918611     0.0000002875678678132     0.0000004335484603468     0.0000003089747176036     0.0000000000045054983 
    0.0000000000054962213     -0.0000002316981924499     -0.0000003140530556660     -0.0000001804329756401     0.0000001172342284823     0.0000004410978801008     0.0000006484290765586     0.0000006697721502385     0.0000005391621252906     0.0000003690341226664     0.0000002698626644053     0.0000001967208537828     0.0000001401018958890     0.0000000963274251472     0.0000000605936620389     0.0000000293022068137     -0.0000000000018782524     -0.0000000293059217937     -0.0000000605972653571     -0.0000000963308843157     -0.0000001401052353296     -0.0000001967241593394     -0.0000002698660550282     -0.0000003690376191567     -0.0000005391651922971     -0.0000006697739739858     -0.0000006484288398310     -0.0000004410950455793     -0.0000001172287187681     0.0000001804408155350     0.0000003140626350495     0.0000002317088303690     0.0000000000054962213 
    0.0000000000053127532     -0.0000001505284548808     -0.0000001915091494466     -0.0000000773681994013     0.0000001477321105013     0.0000003780911683133     0.0000005103193792230     0.0000005021368406958     0.0000003928523887928     0.0000002812362484380     0.0000002161050138682     0.0000001601167324856     0.0000001155756545283     0.0000000800690851717     0.0000000504649606406     0.0000000243807643284     -0.0000000000022810864     -0.0000000243852762166     -0.0000000504693398140     -0.0000000800733000356     -0.0000001155797470274     -0.0000001601208242873     -0.0000002161092809619     -0.0000002812408399548     -0.0000003928569615304     -0.0000005021405538339     -0.0000005103212977490     -0.0000003780905318355     -0.0000001477285625634     0.0000000773745429855     0.0000001915177743884     0.0000001505385650143     0.0000000000053127532 
    0.0000000000040992869     -0.0000000812867655158     -0.0000000908901003222     -0.0000000019921997740     0.0000001509131552218     0.0000002944249598055     0.0000003625608478443     0.0000003373773087151     0.0000002610703917825     0.0000002067085382769     0.0000001613510208190     0.0000001212623840869     0.0000000882723219274     0.0000000611808865258     0.0000000383411339873     0.0000000183946240924     -0.0000000000025263548     -0.0000000183996219685     -0.0000000383459896007     -0.0000000611855726514     -0.0000000882768946474     -0.0000001212669892715     -0.0000001613558757545     -0.0000002067138657645     -0.0000002610762025165     -0.0000003373829122265     -0.0000003625653043870     -0.0000002944273509931     -0.0000001509128343603     0.0000000019954238609     0.0000000908958982063     0.0000000812943333780     0.0000000000040992869 
    0.0000000000023231282     -0.0000000330824209534     -0.0000000252862520002     0.0000000361895276538     0.0000001270486231821     0.0000002022167868130     0.0000002267121074253     0.0000002012842559694     0.0000001676086137615     0.0000001401037767921     0.0000001100181773414     0.0000000826198115212     0.0000000594033052398     0.0000000401797808990     0.0000000244083594842     0.0000000113964125208     -0.0000000000026148380     -0.0000000114015877079     -0.0000000244133953402     -0.0000000401846561140     -0.0000000594080828919     -0.0000000826246443536     -0.0000001100232966632     -0.0000001401094452083     -0.0000001676150217528     -0.0000002012911548651     -0.0000002267186431668     -0.0000002022219841003     -0.0000001270516325816     -0.0000000361898912731     0.0000000252884186981     0.0000000330864061731     0.0000000000023231282 
    0.0000000000006059125     -0.0000000067686758311     0.0000000059405625134     0.0000000423290669851     0.0000000874733818604     0.0000001183171687820     0.0000001225305492398     0.0000001129969496050     0.0000001024387311672     0.0000000842748535741     0.0000000641410111330     0.0000000454221786982     0.0000000296407040126     0.0000000173844547578     0.0000000087923248293     0.0000000034233804900     -0.0000000000025626324     -0.0000000034284565605     -0.0000000087972767782     -0.0000000173892682653     -0.0000000296454427316     -0.0000000454269873119     -0.0000000641461081823     -0.0000000842804985594     -0.0000001024451410361     -0.0000001130041687551     -0.0000001225380879348     -0.0000001183240878152     -0.0000000874787610800     -0.0000000423322996485     -0.0000000059415942306     0.0000000067692829727     0.0000000000006059125 
    -0.0000000000005445453     0.0000000030629771876     0.0000000132113639942     0.0000000307468893990     0.0000000484731143390     0.0000000586405356540     0.0000000631641211724     0.0000000621594788583     0.0000000530341361199     0.0000000391467198012     0.0000000239272807797     0.0000000100473303262     -0.0000000006363525957     -0.0000000069256892225     -0.0000000083485499594     -0.0000000054602987614     -0.0000000000023942147     0.0000000054555502520     0.0000000083439004549     0.0000000069211444808     0.0000000006318509379     -0.0000000100519182314     -0.0000000239321433986     -0.0000000391520771977     -0.0000000530401726516     -0.0000000621662343026     -0.0000000631713858630     -0.0000000586477139960     -0.0000000484793365897     -0.0000000307515279500     -0.0000000132142722002     -0.0000000030645604769     -0.0000000000005445453 
    -0.0000000000009283263     0.0000000043313793320     0.0000000102749743716     0.0000000175238207328     0.0000000247054711550     0.0000000307239021410     0.0000000318003990302     0.0000000268214714824     0.0000000165109916615     0.0000000028957804671     -0.0000000113684122055     -0.0000000235335498373     -0.0000000311504705290     -0.0000000324548115055     -0.0000000268235284196     -0.0000000151738432883     -0.0000000000021379545     0.0000000151695959578     0.0000000268193497372     0.0000000324506970881     0.0000000311463596692     0.0000000235293285251     0.0000000113639277597     -0.0000000029006890775     -0.0000000165164377330     -0.0000000268274405423     -0.0000000318066781546     -0.0000000307300782758     -0.0000000247110394785     -0.0000000175282969132     -0.0000000102781886564     -0.0000000043336068467     -0.0000000000009283263 
    -0.0000000000006539369     0.0000000041192896331     0.0000000084422329531     0.0000000126071343412     0.0000000155059933414     0.0000000155939570678     0.0000000114913932484     0.0000000025653208978     -0.0000000107138122198     -0.0000000266883618653     -0.0000000426833465230     -0.0000000554161014915     -0.0000000616328049271     -0.0000000589091761094     -0.0000000464547477961     -0.0000000256499140570     -0.0000000000018245686     0.0000000256462822694     0.0000000464511546860     0.0000000589056070797     0.0000000616291988740     0.0000000554123569264     0.0000000426793442342     0.0000000266840015296     0.0000000107090600879     -0.0000000025703817171     -0.0000000114965323943     -0.0000000155988194868     -0.0000000155101941504     -0.0000000126104019104     -0.0000000084445331700     -0.0000000041208653686     -0.0000000000006539369 
    -0.0000000000002288139     0.0000000042047270275     0.0000000078134004820     0.0000000100527334658     0.0000000099250594998     0.0000000063321002153     -0.0000000016619878669     -0.0000000144747342173     -0.0000000316127079218     -0.0000000513524234472     -0.0000000706621545519     -0.0000000855226193456     -0.0000000917076791461     -0.0000000859240626019     -0.0000000670182854628     -0.0000000367982886035     -0.0000000000014851938     0.0000000367953261174     0.0000000670153366981     0.0000000859211052397     0.0000000917046531407     0.0000000855194351083     0.0000000706587215602     0.0000000513486911693     0.0000000316087054847     0.0000000144705955105     0.0000000016579494647     -0.0000000063357392885     -0.0000000099280169472     -0.0000000100548410600     -0.0000000078146793532     -0.0000000042054042173     -0.0000000000002288139 
    0.0000000000000451726     0.0000000041455333628     0.0000000073443537848     0.0000000085600548149     0.0000000066738670949     0.0000000006044100645     -0.0000000104886091668     -0.0000000269149924856     -0.0000000480734878936     -0.0000000720552175026     -0.0000000954188718389     -0.0000001133848775383     -0.0000001206438509619     -0.0000001127802996565     -0.0000000879813200420     -0.0000000483453217283     -0.0000000000011468842     0.0000000483430290273     0.0000000879790236146     0.0000001127779740603     0.0000001206414419451     0.0000001133823105616     0.0000000954160814888     0.0000000720521870262     0.0000000480702801221     0.0000000269117577732     0.0000000104855654545     -0.0000000006070224545     -0.0000000066758474762     -0.0000000085613053452     -0.0000000073449223833     -0.0000000041456179494     0.0000000000000451726 
    0.0000000000001667159     0.0000000041170832733     0.0000000071121512351     0.0000000077610764265     0.0000000047660973359     -0.0000000030756670634     -0.0000000166335806066     -0.0000000361647827400     -0.0000000609711082825     -0.0000000889941249346     -0.0000001164739009393     -0.0000001379606315189     -0.0000001470460299315     -0.0000001380158597851     -0.0000001081327689207     -0.0000000596059842640     -0.0000000000008274653     0.0000000596043264126     0.0000001081310980726     0.0000001380141524565     0.0000001470442431747     0.0000001379587101067     0.0000001164718020563     0.0000000889918502761     0.0000000609687258029     0.0000000361624259444     0.0000000166314249361     0.0000000030738909715     -0.0000000047673567752     -0.0000000077617633689     -0.0000000071123157626     -0.0000000041168815467     0.0000000000001667159 
    0.0000000000001731353     0.0000000041280017745     0.0000000070309049409     0.0000000073498780289     0.0000000036294814979     -0.0000000054637262168     -0.0000000208530727983     -0.0000000427724173121     -0.0000000704684511162     -0.0000001018109551584     -0.0000001328499725049     -0.0000001576241353882     -0.0000001687554904108     -0.0000001592659807543     -0.0000001254146607881     -0.0000000693740819645     -0.0000000000005332294     0.0000000693730114099     0.0000001254135758265     0.0000001592648638708     0.0000001687543132001     0.0000001576228634256     0.0000001328485819878     0.0000001018094541641     0.0000000704668927922     0.0000000427708968657     0.0000000208517092790     0.0000000054626359129     -0.0000000036302129066     -0.0000000073502191878     -0.0000000070308933809     -0.0000000041277439456     0.0000000000001731353 
    0.0000000000001051360     0.0000000041509187476     0.0000000070161637774     0.0000000071533220063     0.0000000030044456302     -0.0000000068524346212     -0.0000000233809109347     -0.0000000468069468462     -0.0000000763567377080     -0.0000001098830859558     -0.0000001433498741452     -0.0000001704796929095     -0.0000001832214675559     -0.0000001736616474112     -0.0000001372695929311     -0.0000000761267593674     -0.0000000000002606026     0.0000000761262353578     0.0000001372690597376     0.0000001736610958133     0.0000001832208838622     0.0000001704790613208     0.0000001433491847736     0.0000001098823449864     0.0000000763559734235     0.0000000468062075875     0.0000000233802557584     0.0000000068519202926     -0.0000000030047778396     -0.0000000071534575232     -0.0000000070161218880     -0.0000000041507529840     0.0000000000001051360 
    -0.0000000000000000000     0.0000000041615764229     0.0000000070168330410     0.0000000070947246486     0.0000000028022253801     -0.0000000073131448600     -0.0000000242292737754     -0.0000000481706454121     -0.0000000783594581223     -0.0000001126484545025     -0.0000001469789092750     -0.0000001749671514205     -0.0000001883204880285     -0.0000001787786525740     -0.0000001415100978805     -0.0000000785514627923     0.0000000000000000000     0.0000000785514627923     0.0000001415100978805     0.0000001787786525740     0.0000001883204880285     0.0000001749671514205     0.0000001469789092750     0.0000001126484545025     0.0000000783594581223     0.0000000481706454121     0.0000000242292737754     0.0000000073131448600     -0.0000000028022253801     -0.0000000070947246486     -0.0000000070168330410     -0.0000000041615764229     -0.0000000000000000000 
    -0.0000000000001051360     0.0000000041507529840     0.0000000070161218880     0.0000000071534575232     0.0000000030047778396     -0.0000000068519202926     -0.0000000233802557584     -0.0000000468062075875     -0.0000000763559734235     -0.0000001098823449864     -0.0000001433491847736     -0.0000001704790613208     -0.0000001832208838622     -0.0000001736610958133     -0.0000001372690597376     -0.0000000761262353578     0.0000000000002606026     0.0000000761267593674     0.0000001372695929311     0.0000001736616474112     0.0000001832214675559     0.0000001704796929095     0.0000001433498741452     0.0000001098830859558     0.0000000763567377080     0.0000000468069468462     0.0000000233809109347     0.0000000068524346212     -0.0000000030044456302     -0.0000000071533220063     -0.0000000070161637774     -0.0000000041509187476     -0.0000000000001051360 
    -0.0000000000001731353     0.0000000041277439456     0.0000000070308933809     0.0000000073502191878     0.0000000036302129066     -0.0000000054626359129     -0.0000000208517092790     -0.0000000427708968657     -0.0000000704668927922     -0.0000001018094541641     -0.0000001328485819878     -0.0000001576228634256     -0.0000001687543132001     -0.0000001592648638708     -0.0000001254135758265     -0.0000000693730114099     0.0000000000005332294     0.0000000693740819645     0.0000001254146607881     0.0000001592659807543     0.0000001687554904108     0.0000001576241353882     0.0000001328499725049     0.0000001018109551584     0.0000000704684511162     0.0000000427724173121     0.0000000208530727983     0.0000000054637262168     -0.0000000036294814979     -0.0000000073498780289     -0.0000000070309049409     -0.0000000041280017745     -0.0000000000001731353 
    -0.0000000000001667159     0.0000000041168815467     0.0000000071123157626     0.0000000077617633689     0.0000000047673567752     -0.0000000030738909715     -0.0000000166314249361     -0.0000000361624259444     -0.0000000609687258029     -0.0000000889918502761     -0.0000001164718020563     -0.0000001379587101067     -0.0000001470442431747     -0.0000001380141524565     -0.0000001081310980726     -0.0000000596043264126     0.0000000000008274653     0.0000000596059842640     0.0000001081327689207     0.0000001380158597851     0.0000001470460299315     0.0000001379606315189     0.0000001164739009393     0.0000000889941249346     0.0000000609711082825     0.0000000361647827400     0.0000000166335806066     0.0000000030756670634     -0.0000000047660973359     -0.0000000077610764265     -0.0000000071121512351     -0.0000000041170832733     -0.0000000000001667159 
    -0.0000000000000451726     0.0000000041456179494     0.0000000073449223833     0.0000000085613053452     0.0000000066758474762     0.0000000006070224545     -0.0000000104855654545     -0.0000000269117577732     -0.0000000480702801221     -0.0000000720521870262     -0.0000000954160814888     -0.0000001133823105616     -0.0000001206414419451     -0.0000001127779740603     -0.0000000879790236146     -0.0000000483430290273     0.0000000000011468842     0.0000000483453217283     0.0000000879813200420     0.0000001127802996565     0.0000001206438509619     0.0000001133848775383     0.0000000954188718389     0.0000000720552175026     0.0000000480734878936     0.0000000269149924856     0.0000000104886091668     -0.0000000006044100645     -0.0000000066738670949     -0.0000000085600548149     -0.0000000073443537848     -0.0000000041455333628     -0.0000000000000451726 
    0.0000000000002288139     0.0000000042054042173     0.0000000078146793532     0.0000000100548410600     0.0000000099280169472     0.0000000063357392885     -0.0000000016579494647     -0.0000000144705955105     -0.0000000316087054847     -0.0000000513486911693     -0.0000000706587215602     -0.0000000855194351083     -0.0000000917046531407     -0.0000000859211052397     -0.0000000670153366981     -0.0000000367953261174     0.0000000000014851938     0.0000000367982886035     0.0000000670182854628     0.0000000859240626019     0.0000000917076791461     0.0000000855226193456     0.0000000706621545519     0.0000000513524234472     0.0000000316127079218     0.0000000144747342173     0.0000000016619878669     -0.0000000063321002153     -0.0000000099250594998     -0.0000000100527334658     -0.0000000078134004820     -0.0000000042047270275     0.0000000000002288139 
    0.0000000000006539369     0.0000000041208653686     0.0000000084445331700     0.0000000126104019104     0.0000000155101941504     0.0000000155988194868     0.0000000114965323943     0.0000000025703817171     -0.0000000107090600879     -0.0000000266840015296     -0.0000000426793442342     -0.0000000554123569264     -0.0000000616291988740     -0.0000000589056070797     -0.0000000464511546860     -0.0000000256462822694     0.0000000000018245686     0.0000000256499140570     0.0000000464547477961     0.0000000589091761094     0.0000000616328049271     0.0000000554161014915     0.0000000426833465230     0.0000000266883618653     0.0000000107138122198     -0.0000000025653208978     -0.0000000114913932484     -0.0000000155939570678     -0.0000000155059933414     -0.0000000126071343412     -0.0000000084422329531     -0.0000000041192896331     0.0000000000006539369 
    0.0000000000009283263     0.0000000043336068467     0.0000000102781886564     0.0000000175282969132     0.0000000247110394785     0.0000000307300782758     0.0000000318066781546     0.0000000268274405423     0.0000000165164377330     0.0000000029006890775     -0.0000000113639277597     -0.0000000235293285251     -0.0000000311463596692     -0.0000000324506970881     -0.0000000268193497372     -0.0000000151695959578     0.0000000000021379545     0.0000000151738432883     0.0000000268235284196     0.0000000324548115055     0.0000000311504705290     0.0000000235335498373     0.0000000113684122055     -0.0000000028957804671     -0.0000000165109916615     -0.0000000268214714824     -0.0000000318003990302     -0.0000000307239021410     -0.0000000247054711550     -0.0000000175238207328     -0.0000000102749743716     -0.0000000043313793320     0.0000000000009283263 
    0.0000000000005445453     0.0000000030645604769     0.0000000132142722002     0.0000000307515279500     0.0000000484793365897     0.0000000586477139960     0.0000000631713858630     0.0000000621662343026     0.0000000530401726516     0.0000000391520771977     0.0000000239321433986     0.0000000100519182314     -0.0000000006318509379     -0.0000000069211444808     -0.0000000083439004549     -0.0000000054555502520     0.0000000000023942147     0.0000000054602987614     0.0000000083485499594     0.0000000069256892225     0.0000000006363525957     -0.0000000100473303262     -0.0000000239272807797     -0.0000000391467198012     -0.0000000530341361199     -0.0000000621594788583     -0.0000000631641211724     -0.0000000586405356540     -0.0000000484731143390     -0.0000000307468893990     -0.0000000132113639942     -0.0000000030629771876     0.0000000000005445453 
    -0.0000000000006059125     -0.0000000067692829727     0.0000000059415942306     0.0000000423322996485     0.0000000874787610800     0.0000001183240878152     0.0000001225380879348     0.0000001130041687551     0.0000001024451410361     0.0000000842804985594     0.0000000641461081823     0.0000000454269873119     0.0000000296454427316     0.0000000173892682653     0.0000000087972767782     0.0000000034284565605     0.0000000000025626324     -0.0000000034233804900     -0.0000000087923248293     -0.0000000173844547578     -0.0000000296407040126     -0.0000000454221786982     -0.0000000641410111330     -0.0000000842748535741     -0.0000001024387311672     -0.0000001129969496050     -0.0000001225305492398     -0.0000001183171687820     -0.0000000874733818604     -0.0000000423290669851     -0.0000000059405625134     0.0000000067686758311     -0.0000000000006059125 
    -0.0000000000023231282     -0.0000000330864061731     -0.0000000252884186981     0.0000000361898912731     0.0000001270516325816     0.0000002022219841003     0.0000002267186431668     0.0000002012911548651     0.0000001676150217528     0.0000001401094452083     0.0000001100232966632     0.0000000826246443536     0.0000000594080828919     0.0000000401846561140     0.0000000244133953402     0.0000000114015877079     0.0000000000026148380     -0.0000000113964125208     -0.0000000244083594842     -0.0000000401797808990     -0.0000000594033052398     -0.0000000826198115212     -0.0000001100181773414     -0.0000001401037767921     -0.0000001676086137615     -0.0000002012842559694     -0.0000002267121074253     -0.0000002022167868130     -0.0000001270486231821     -0.0000000361895276538     0.0000000252862520002     0.0000000330824209534     -0.0000000000023231282 
    -0.0000000000040992869     -0.0000000812943333780     -0.0000000908958982063     -0.0000000019954238609     0.0000001509128343603     0.0000002944273509931     0.0000003625653043870     0.0000003373829122265     0.0000002610762025165     0.0000002067138657645     0.0000001613558757545     0.0000001212669892715     0.0000000882768946474     0.0000000611855726514     0.0000000383459896007     0.0000000183996219685     0.0000000000025263548     -0.0000000183946240924     -0.0000000383411339873     -0.0000000611808865258     -0.0000000882723219274     -0.0000001212623840869     -0.0000001613510208190     -0.0000002067085382769     -0.0000002610703917825     -0.0000003373773087151     -0.0000003625608478443     -0.0000002944249598055     -0.0000001509131552218     0.0000000019921997740     0.0000000908901003222     0.0000000812867655158     -0.0000000000040992869 
    -0.0000000000053127532     -0.0000001505385650143     -0.0000001915177743884     -0.0000000773745429855     0.0000001477285625634     0.0000003780905318355     0.0000005103212977490     0.0000005021405538339     0.0000003928569615304     0.0000002812408399548     0.0000002161092809619     0.0000001601208242873     0.0000001155797470274     0.0000000800733000356     0.0000000504693398140     0.0000000243852762166     0.0000000000022810864     -0.0000000243807643284     -0.0000000504649606406     -0.0000000800690851717     -0.0000001155756545283     -0.0000001601167324856     -0.0000002161050138682     -0.0000002812362484380     -0.0000003928523887928     -0.0000005021368406958     -0.0000005103193792230     -0.0000003780911683133     -0.0000001477321105013     0.0000000773681994013     0.0000001915091494466     0.0000001505284548808     -0.0000000000053127532 
    -0.0000000000054962213     -0.0000002317088303690     -0.0000003140626350495     -0.0000001804408155350     0.0000001172287187681     0.0000004410950455793     0.0000006484288398310     0.0000006697739739858     0.0000005391651922971     0.0000003690376191567     0.0000002698660550282     0.0000001967241593394     0.0000001401052353296     0.0000000963308843157     0.0000000605972653571     0.0000000293059217937     0.0000000000018782524     -0.0000000293022068137     -0.0000000605936620389     -0.0000000963274251472     -0.0000001401018958890     -0.0000001967208537828     -0.0000002698626644053     -0.0000003690341226664     -0.0000005391621252906     -0.0000006697721502385     -0.0000006484290765586     -0.0000004410978801008     -0.0000001172342284823     0.0000001804329756401     0.0000003140530556660     0.0000002316981924499     -0.0000000000054962213 
    -0.0000000000045054983     -0.0000003089747176036     -0.0000004335484603468     -0.0000002875678678132     0.0000000719045918611     0.0000004798375871020     0.0000007585259042005     0.0000008131440862546     0.0000006715040768606     0.0000004567886672648     0.0000003161237526934     0.0000002274268270346     0.0000001600211071155     0.0000001091260533344     0.0000000683851192079     0.0000000330407044938     0.0000000000013370404     -0.0000000330380599111     -0.0000000683825553426     -0.0000001091235977487     -0.0000001600187501350     -0.0000002274245193370     -0.0000003161214299208     -0.0000004567864089266     -0.0000006715023768527     -0.0000008131435907173     -0.0000007585272107726     -0.0000004798410085503     -0.0000000719100397061     0.0000002875607939748     0.0000004335402753635     0.0000003089659069189     -0.0000000000045054983 
    -0.0000000000025295675     -0.0000003645944320619     -0.0000005208277932333     -0.0000003686901535899     0.0000000320977334117     0.0000004984484508447     0.0000008284852683593     0.0000009092167505987     0.0000007633888574673     0.0000005210135207097     0.0000003477098172390     0.0000002481038509663     0.0000001731797987455     0.0000001174161128103     0.0000000733545838741     0.0000000354028433226     0.0000000000006948050     -0.0000000354014689962     -0.0000000733532519006     -0.0000001174148392130     -0.0000001731785816066     -0.0000002481026695650     -0.0000003477086463746     -0.0000005210124405126     -0.0000007633881566416     -0.0000009092167864726     -0.0000008284863537224     -0.0000004984507199802     -0.0000000321010874414     0.0000003686859771614     0.0000005208230928925     0.0000003645894569260     -0.0000000000025295675 
    -0.0000000000000000000     -0.0000003848437717886     -0.0000005528284072206     -0.0000003989306522335     0.0000000163479824670     0.0000005036116191380     0.0000008523507092350     0.0000009429624377905     0.0000007962371543670     0.0000005445209385845     0.0000003589579531696     0.0000002554242335252     0.0000001777982328234     0.0000001202989262903     0.0000000750697696051     0.0000000362143117522     0.0000000000000000000     -0.0000000362143117522     -0.0000000750697696051     -0.0000001202989262903     -0.0000001777982328234     -0.0000002554242335252     -0.0000003589579531696     -0.0000005445209385845     -0.0000007962371543670     -0.0000009429624377905     -0.0000008523507092350     -0.0000005036116191380     -0.0000000163479824670     0.0000003989306522335     0.0000005528284072206     0.0000003848437717886     -0.0000000000000000000 
    -0.0000000000000000000     -0.0000005803562934814     -0.0000009133402620570     -0.0000008729416807294     -0.0000005114750653512     -0.0000000204136511516     0.0000003808526453412     0.0000005593452067024     0.0000005212350736308     0.0000003877454855309     0.0000002986464848610     0.0000002256582157069     0.0000001650461763753     0.0000001157304415019     0.0000000737991525588     0.0000000359781779177     -0.0000000000000000000     -0.0000000359781779177     -0.0000000737991525588     -0.0000001157304415019     -0.0000001650461763753     -0.0000002256582157069     -0.0000002986464848610     -0.0000003877454855309     -0.0000005212350736308     -0.0000005593452067024     -0.0000003808526453412     0.0000000204136511516     0.0000005114750653512     0.0000008729416807294     0.0000009133402620570     0.0000005803562934814     -0.0000000000000000000 
    0.0000000000017613069     -0.0000005534349671612     -0.0000008691804687007     -0.0000008269057862306     -0.0000004782147876716     -0.0000000080245068019     0.0000003732212388034     0.0000005395402177647     0.0000004995874634637     0.0000003727944597055     0.0000002898445450721     0.0000002196044251452     0.0000001610215517590     0.0000001131035719998     0.0000000721863428809     0.0000000352015961282     -0.0000000000006098620     -0.0000000352027943659     -0.0000000721874810335     -0.0000001131046246056     -0.0000001610225140304     -0.0000002196053156521     -0.0000002898453971669     -0.0000003727952829306     -0.0000004995880936999     -0.0000005395404067712     -0.0000003732207550941     0.0000000080257882753     0.0000004782168440842     0.0000008269084821235     0.0000008691836239175     0.0000005534383976326     0.0000000000017613069 
    0.0000000000030547485     -0.0000004790425806571     -0.0000007476060278183     -0.0000007011095537607     -0.0000003887882884229     0.0000000231082996200     0.0000003491941325939     0.0000004828220198050     0.0000004392786787562     0.0000003326947403392     0.0000002649488833440     0.0000002023443190464     0.0000001494258533890     0.0000001054564989232     0.0000000674546761140     0.0000000329136424589     -0.0000000000011674529     -0.0000000329159359019     -0.0000000674568544735     -0.0000001054585158564     -0.0000001494277044070     -0.0000002023460469580     -0.0000002649505639288     -0.0000003326964283455     -0.0000004392801306631     -0.0000004828227932125     -0.0000003491937902678     -0.0000000231065652406     0.0000003887914431590     0.0000007011139446892     0.0000007476113544297     0.0000004790484908430     0.0000000000030547485 
    0.0000000000035465704     -0.0000003742579895954     -0.0000005776499871995     -0.0000005279359435064     -0.0000002698809636536     0.0000000581308642806     0.0000003070184273580     0.0000003974463068874     0.0000003534055978946     0.0000002803729959553     0.0000002279628667770     0.0000001762413482512     0.0000001314948734834     0.0000000933781356690     0.0000000598632953656     0.0000000292106928689     -0.0000000000016274328     -0.0000000292138892207     -0.0000000598663310737     -0.0000000933809509366     -0.0000001314974711305     -0.0000001762438013614     -0.0000002279653026359     -0.0000002803755405555     -0.0000003534080880149     -0.0000003974481976918     -0.0000003070191296109     -0.0000000581299271222     0.0000002698837197344     0.0000005279404144129     0.0000005776558501782     0.0000003742647641152     0.0000000000035465704 
    0.0000000000031477467     -0.0000002613779201318     -0.0000003966827465440     -0.0000003480209225655     -0.0000001534896002284     0.0000000812050621481     0.0000002479400982599     0.0000002971218010245     0.0000002610764522311     0.0000002234328178876     0.0000001840607360411     0.0000001442946577118     0.0000001087533945523     0.0000000775573851246     0.0000000496893194358     0.0000000241853231094     -0.0000000000019581024     -0.0000000241891679203     -0.0000000496929707340     -0.0000000775607776571     -0.0000001087565435660     -0.0000001442976670657     -0.0000001840637834933     -0.0000002234361004016     -0.0000002610800112367     -0.0000002971251360074     -0.0000002479425432111     -0.0000000812060024921     0.0000001534905594091     0.0000003480238635404     0.0000003966874237059     0.0000002613837897479     0.0000000000031477467 
    0.0000000000020616050     -0.0000001608223798517     -0.0000002381364754416     -0.0000001961126914753     -0.0000000645611984412     0.0000000834481987645     0.0000001789496836506     0.0000001995209765116     0.0000001834613713389     0.0000001657076960841     0.0000001380720068797     0.0000001092447689554     0.0000000825348279133     0.0000000585346457093     0.0000000371016236456     0.0000000178717013743     -0.0000000000021451822     -0.0000000178759127568     -0.0000000371056238019     -0.0000000585383710407     -0.0000000825383074969     -0.0000001092481305986     -0.0000001380754645709     -0.0000001657115034686     -0.0000001834657284866     -0.0000001995256530288     -0.0000001789540125592     -0.0000000834514523853     0.0000000645596236979     0.0000001961130999884     0.0000002381387615818     0.0000001608260129554     0.0000000000020616050 
    0.0000000000007204742     -0.0000000853071982095     -0.0000001218712142265     -0.0000000908088449634     -0.0000000130986334967     0.0000000667726450677     0.0000001125322902057     0.0000001230626059002     0.0000001245768638675     0.0000001123961635500     0.0000000933946603327     0.0000000729913358449     0.0000000537074687126     0.0000000365853487054     0.0000000221127908109     0.0000000102270911304     -0.0000000000021903965     -0.0000000102313916475     -0.0000000221168795487     -0.0000000365891697255     -0.0000000537110635010     -0.0000000729948450896     -0.0000000933983119801     -0.0000001124002358537     -0.0000001245816034227     -0.0000001230680880140     -0.0000001125380199789     -0.0000000667778506415     0.0000000130946958810     0.0000000908066600313     0.0000001218708230792     0.0000000853081447280     0.0000000000007204742 
    -0.0000000000003932339     -0.0000000377258490400     -0.0000000511381493082     -0.0000000322386350694     0.0000000062933052235     0.0000000422595971057     0.0000000634510786579     0.0000000760115731049     0.0000000756937364691     0.0000000659388215840     0.0000000516548745529     0.0000000364581808986     0.0000000226498303383     0.0000000117377721365     0.0000000045999252644     0.0000000011424512643     -0.0000000000021067131     -0.0000000011465899330     -0.0000000046038696030     -0.0000000117414791035     -0.0000000226533518331     -0.0000000364616601966     -0.0000000516585318244     -0.0000000659429224185     -0.0000000756985227065     -0.0000000760171526226     -0.0000000634572959332     -0.0000000422657841358     -0.0000000062986712579     0.0000000322346666862     0.0000000511357258047     0.0000000377246166832     -0.0000000000003932339 
    -0.0000000000009539799     -0.0000000130827490300     -0.0000000163202024590     -0.0000000071599489808     0.0000000087723918118     0.0000000248467838882     0.0000000374497495082     0.0000000414456228562     0.0000000369596398037     0.0000000264270202320     0.0000000130283616887     -0.0000000002003522446     -0.0000000106273227536     -0.0000000161623657592     -0.0000000156675466248     -0.0000000095489551675     -0.0000000000019146744     0.0000000095451887930     0.0000000156639408915     0.0000000161589464745     0.0000000106240287108     0.0000000001970438962     -0.0000000130318818121     -0.0000000264309750775     -0.0000000369642188181     -0.0000000414508915838     -0.0000000374555606109     -0.0000000248527572168     -0.0000000087779056025     0.0000000071554709384     0.0000000163169537376     0.0000000130804734315     -0.0000000000009539799 
    -0.0000000000008975157     -0.0000000026102171609     -0.0000000020700511039     0.0000000026773941239     0.0000000101704425864     0.0000000169295895965     0.0000000195614700929     0.0000000161247653474     0.0000000066043198330     -0.0000000073790721243     -0.0000000231065849149     -0.0000000372432886573     -0.0000000463150962888     -0.0000000473894686230     -0.0000000390111659857     -0.0000000220692808382     -0.0000000000016420052     0.0000000220660435941     0.0000000390080445101     0.0000000473864690282     0.0000000463121488577     0.0000000372402603687     0.0000000231033077644     0.0000000073753814266     -0.0000000066085336357     -0.0000000161294916280     -0.0000000195665234817     -0.0000000169346128502     -0.0000000101750021950     -0.0000000026811467006     0.0000000020672262140     0.0000000026081386660     -0.0000000000008975157 
    -0.0000000000004348942     0.0000000019819867891     0.0000000047021939394     0.0000000080801320278     0.0000000109216686590     0.0000000112850548901     0.0000000072338079027     -0.0000000024273509082     -0.0000000176680256095     -0.0000000370085486856     -0.0000000574996531971     -0.0000000749519591576     -0.0000000845822616244     -0.0000000821986069273     -0.0000000657514385116     -0.0000000366473149584     -0.0000000000013238771     0.0000000366446960501     0.0000000657488866714     0.0000000821961091910     0.0000000845797422520     0.0000000749492940855     0.0000000574967052626     0.0000000370052123972     0.0000000176642729533     0.0000000024232709674     -0.0000000072379911745     -0.0000000112890113179     -0.0000000109250505891     -0.0000000080827001388     -0.0000000047039214908     -0.0000000019830876326     -0.0000000000004348942 
    -0.0000000000000409863     0.0000000042419420088     0.0000000080968502779     0.0000000108121210589     0.0000000111534875106     0.0000000075940557551     -0.0000000013050400124     -0.0000000164461026216     -0.0000000377254798442     -0.0000000635583689552     -0.0000000904964979626     -0.0000001132067231875     -0.0000001251882511108     -0.0000001204554750311     -0.0000000958978028121     -0.0000000533386866713     -0.0000000000009993123     0.0000000533367000510     0.0000000958958383001     0.0000001204535046953     0.0000001251861987911     0.0000001132044787021     0.0000000904939549262     0.0000000635554718472     0.0000000377222629713     0.0000000164427088118     0.0000000013017104104     -0.0000000075970275251     -0.0000000111558340579     -0.0000000108136905256     -0.0000000080976688172     -0.0000000042422201412     -0.0000000000000409863 
    0.0000000000001907075     0.0000000054458977273     0.0000000099818054674     0.0000000124454996370     0.0000000113785220984     0.0000000052117746340     -0.0000000074362016075     -0.0000000274172036822     -0.0000000546175920757     -0.0000000873521364086     -0.0000001216766080651     -0.0000001510343047093     -0.0000001669091606868     -0.0000001609934200632     -0.0000001285729893165     -0.0000000716822087832     -0.0000000000007029794     0.0000000716808013640     0.0000001285715689743     0.0000001609919506942     0.0000001669075736079     0.0000001510325107081     0.0000001216745316974     0.0000000873497584621     0.0000000546149800101     0.0000000274145166754     0.0000000074336665637     -0.0000000052139127415     -0.0000000113800650287     -0.0000000124463568140     -0.0000000099820286552     -0.0000000054456759886     0.0000000000001907075 
    0.0000000000002751294     0.0000000061718221039     0.0000000111710098853     0.0000000135633880188     0.0000000116340788614     0.0000000036212680504     -0.0000000119662362703     -0.0000000360483906342     -0.0000000685867565568     -0.0000001079022717838     -0.0000001496932351614     -0.0000001862679811227     -0.0000002070056299747     -0.0000002009588060897     -0.0000001613959792481     -0.0000000903205254925     -0.0000000000004567589     0.0000000903196021684     0.0000001613950224487     0.0000002009577794787     0.0000002070044796180     0.0000001862666442082     0.0000001496916657126     0.0000001079004725829     0.0000000685848001127     0.0000000360464179185     0.0000000119644320014     -0.0000000036227174213     -0.0000000116350334941     -0.0000000135637951568     -0.0000000111709231625     -0.0000000061713936859     0.0000000000002751294 
    0.0000000000002480328     0.0000000066386513004     0.0000000119580197896     0.0000000143399333438     0.0000000118549176602     0.0000000025450874869     -0.0000000152203246075     -0.0000000424683012343     -0.0000000792874747327     -0.0000001240978948737     -0.0000001724036605657     -0.0000002156033453734     -0.0000002411909869577     -0.0000002356974955884     -0.0000001903328865560     -0.0000001068938410592     -0.0000000000002658487     0.0000001068932974560     0.0000001903323061460     0.0000002356968492899     0.0000002411902393499     0.0000002156024599009     0.0000001724026149774     0.0000001240967005783     0.0000000792861889986     0.0000000424670247037     0.0000000152191835210     -0.0000000025459696955     -0.0000000118554517178     -0.0000000143400893446     -0.0000000119578383996     -0.0000000066382378008     0.0000000000002480328 
    0.0000000000001443621     0.0000000069126292188     0.0000000124249626079     0.0000000148086015426     0.0000000119959770092     0.0000000018951491675     -0.0000000172279993638     -0.0000000464898184117     -0.0000000860945741695     -0.0000001345763956659     -0.0000001873641183187     -0.0000002352720801717     -0.0000002644761868118     -0.0000002596655001328     -0.0000002104854085070     -0.0000001185012194763     -0.0000000000001203405     0.0000001185009708905     0.0000002104851362933     0.0000002596651882025     0.0000002644758181674     0.0000002352716391848     0.0000001873635974100     0.0000001345758038027     0.0000000860939421813     0.0000000464891975156     0.0000000172274524653     -0.0000000018955612611     -0.0000000119962108031     -0.0000000148086431275     -0.0000000124248331916     -0.0000000069123822874     0.0000000000001443621 
    -0.0000000000000000000     0.0000000070042237522     0.0000000125814847424     0.0000000149661942479     0.0000000120435195377     0.0000000016747471186     -0.0000000179115914439     -0.0000000478661449884     -0.0000000884393915406     -0.0000001382144187626     -0.0000001926038664076     -0.0000002422212818917     -0.0000002727679701953     -0.0000002682550335867     -0.0000002177409854199     -0.0000001226918277249     0.0000000000000000000     0.0000001226918277249     0.0000002177409854199     0.0000002682550335867     0.0000002727679701953     0.0000002422212818917     0.0000001926038664076     0.0000001382144187626     0.0000000884393915406     0.0000000478661449884     0.0000000179115914439     -0.0000000016747471186     -0.0000000120435195377     -0.0000000149661942479     -0.0000000125814847424     -0.0000000070042237522     -0.0000000000000000000 
    -0.0000000000001443621     0.0000000069123822874     0.0000000124248331916     0.0000000148086431275     0.0000000119962108031     0.0000000018955612611     -0.0000000172274524653     -0.0000000464891975156     -0.0000000860939421813     -0.0000001345758038027     -0.0000001873635974100     -0.0000002352716391848     -0.0000002644758181674     -0.0000002596651882025     -0.0000002104851362933     -0.0000001185009708905     0.0000000000001203405     0.0000001185012194763     0.0000002104854085070     0.0000002596655001328     0.0000002644761868118     0.0000002352720801717     0.0000001873641183187     0.0000001345763956659     0.0000000860945741695     0.0000000464898184117     0.0000000172279993638     -0.0000000018951491675     -0.0000000119959770092     -0.0000000148086015426     -0.0000000124249626079     -0.0000000069126292188     -0.0000000000001443621 
    -0.0000000000002480328     0.0000000066382378008     0.0000000119578383996     0.0000000143400893446     0.0000000118554517178     0.0000000025459696955     -0.0000000152191835210     -0.0000000424670247037     -0.0000000792861889986     -0.0000001240967005783     -0.0000001724026149774     -0.0000002156024599009     -0.0000002411902393499     -0.0000002356968492899     -0.0000001903323061460     -0.0000001068932974560     0.0000000000002658487     0.0000001068938410592     0.0000001903328865560     0.0000002356974955884     0.0000002411909869577     0.0000002156033453734     0.0000001724036605657     0.0000001240978948737     0.0000000792874747327     0.0000000424683012343     0.0000000152203246075     -0.0000000025450874869     -0.0000000118549176602     -0.0000000143399333438     -0.0000000119580197896     -0.0000000066386513004     -0.0000000000002480328 
    -0.0000000000002751294     0.0000000061713936859     0.0000000111709231625     0.0000000135637951568     0.0000000116350334941     0.0000000036227174213     -0.0000000119644320014     -0.0000000360464179185     -0.0000000685848001127     -0.0000001079004725829     -0.0000001496916657126     -0.0000001862666442082     -0.0000002070044796180     -0.0000002009577794787     -0.0000001613950224487     -0.0000000903196021684     0.0000000000004567589     0.0000000903205254925     0.0000001613959792481     0.0000002009588060897     0.0000002070056299747     0.0000001862679811227     0.0000001496932351614     0.0000001079022717838     0.0000000685867565568     0.0000000360483906342     0.0000000119662362703     -0.0000000036212680504     -0.0000000116340788614     -0.0000000135633880188     -0.0000000111710098853     -0.0000000061718221039     -0.0000000000002751294 
    -0.0000000000001907075     0.0000000054456759886     0.0000000099820286552     0.0000000124463568140     0.0000000113800650287     0.0000000052139127415     -0.0000000074336665637     -0.0000000274145166754     -0.0000000546149800101     -0.0000000873497584621     -0.0000001216745316974     -0.0000001510325107081     -0.0000001669075736079     -0.0000001609919506942     -0.0000001285715689743     -0.0000000716808013640     0.0000000000007029794     0.0000000716822087832     0.0000001285729893165     0.0000001609934200632     0.0000001669091606868     0.0000001510343047093     0.0000001216766080651     0.0000000873521364086     0.0000000546175920757     0.0000000274172036822     0.0000000074362016075     -0.0000000052117746340     -0.0000000113785220984     -0.0000000124454996370     -0.0000000099818054674     -0.0000000054458977273     -0.0000000000001907075 
    0.0000000000000409863     0.0000000042422201412     0.0000000080976688172     0.0000000108136905256     0.0000000111558340579     0.0000000075970275251     -0.0000000013017104104     -0.0000000164427088118     -0.0000000377222629713     -0.0000000635554718472     -0.0000000904939549262     -0.0000001132044787021     -0.0000001251861987911     -0.0000001204535046953     -0.0000000958958383001     -0.0000000533367000510     0.0000000000009993123     0.0000000533386866713     0.0000000958978028121     0.0000001204554750311     0.0000001251882511108     0.0000001132067231875     0.0000000904964979626     0.0000000635583689552     0.0000000377254798442     0.0000000164461026216     0.0000000013050400124     -0.0000000075940557551     -0.0000000111534875106     -0.0000000108121210589     -0.0000000080968502779     -0.0000000042419420088     0.0000000000000409863 
    0.0000000000004348942     0.0000000019830876326     0.0000000047039214908     0.0000000080827001388     0.0000000109250505891     0.0000000112890113179     0.0000000072379911745     -0.0000000024232709674     -0.0000000176642729533     -0.0000000370052123972     -0.0000000574967052626     -0.0000000749492940855     -0.0000000845797422520     -0.0000000821961091910     -0.0000000657488866714     -0.0000000366446960501     0.0000000000013238771     0.0000000366473149584     0.0000000657514385116     0.0000000821986069273     0.0000000845822616244     0.0000000749519591576     0.0000000574996531971     0.0000000370085486856     0.0000000176680256095     0.0000000024273509082     -0.0000000072338079027     -0.0000000112850548901     -0.0000000109216686590     -0.0000000080801320278     -0.0000000047021939394     -0.0000000019819867891     0.0000000000004348942 
    0.0000000000008975157     -0.0000000026081386660     -0.0000000020672262140     0.0000000026811467006     0.0000000101750021950     0.0000000169346128502     0.0000000195665234817     0.0000000161294916280     0.0000000066085336357     -0.0000000073753814266     -0.0000000231033077644     -0.0000000372402603687     -0.0000000463121488577     -0.0000000473864690282     -0.0000000390080445101     -0.0000000220660435941     0.0000000000016420052     0.0000000220692808382     0.0000000390111659857     0.0000000473894686230     0.0000000463150962888     0.0000000372432886573     0.0000000231065849149     0.0000000073790721243     -0.0000000066043198330     -0.0000000161247653474     -0.0000000195614700929     -0.0000000169295895965     -0.0000000101704425864     -0.0000000026773941239     0.0000000020700511039     0.0000000026102171609     0.0000000000008975157 
    0.0000000000009539799     -0.0000000130804734315     -0.0000000163169537376     -0.0000000071554709384     0.0000000087779056025     0.0000000248527572168     0.0000000374555606109     0.0000000414508915838     0.0000000369642188181     0.0000000264309750775     0.0000000130318818121     -0.0000000001970438962     -0.0000000106240287108     -0.0000000161589464745     -0.0000000156639408915     -0.0000000095451887930     0.0000000000019146744     0.0000000095489551675     0.0000000156675466248     0.0000000161623657592     0.0000000106273227536     0.0000000002003522446     -0.0000000130283616887     -0.0000000264270202320     -0.0000000369596398037     -0.0000000414456228562     -0.0000000374497495082     -0.0000000248467838882     -0.0000000087723918118     0.0000000071599489808     0.0000000163202024590     0.0000000130827490300     0.0000000000009539799 
    0.0000000000003932339     -0.0000000377246166832     -0.0000000511357258047     -0.0000000322346666862     0.0000000062986712579     0.0000000422657841358     0.0000000634572959332     0.0000000760171526226     0.0000000756985227065     0.0000000659429224185     0.0000000516585318244     0.0000000364616601966     0.0000000226533518331     0.0000000117414791035     0.0000000046038696030     0.0000000011465899330     0.0000000000021067131     -0.0000000011424512643     -0.0000000045999252644     -0.0000000117377721365     -0.0000000226498303383     -0.0000000364581808986     -0.0000000516548745529     -0.0000000659388215840     -0.0000000756937364691     -0.0000000760115731049     -0.0000000634510786579     -0.0000000422595971057     -0.0000000062933052235     0.0000000322386350694     0.0000000511381493082     0.0000000377258490400     0.0000000000003932339 
    -0.0000000000007204742     -0.0000000853081447280     -0.0000001218708230792     -0.0000000908066600313     -0.0000000130946958810     0.0000000667778506415     0.0000001125380199789     0.0000001230680880140     0.0000001245816034227     0.0000001124002358537     0.0000000933983119801     0.0000000729948450896     0.0000000537110635010     0.0000000365891697255     0.0000000221168795487     0.0000000102313916475     0.0000000000021903965     -0.0000000102270911304     -0.0000000221127908109     -0.0000000365853487054     -0.0000000537074687126     -0.0000000729913358449     -0.0000000933946603327     -0.0000001123961635500     -0.0000001245768638675     -0.0000001230626059002     -0.0000001125322902057     -0.0000000667726450677     0.0000000130986334967     0.0000000908088449634     0.0000001218712142265     0.0000000853071982095     -0.0000000000007204742 
    -0.0000000000020616051     -0.0000001608260129554     -0.0000002381387615818     -0.0000001961130999884     -0.0000000645596236979     0.0000000834514523853     0.0000001789540125592     0.0000001995256530288     0.0000001834657284866     0.0000001657115034686     0.0000001380754645709     0.0000001092481305986     0.0000000825383074969     0.0000000585383710407     0.0000000371056238019     0.0000000178759127568     0.0000000000021451822     -0.0000000178717013743     -0.0000000371016236456     -0.0000000585346457093     -0.0000000825348279133     -0.0000001092447689554     -0.0000001380720068797     -0.0000001657076960841     -0.0000001834613713389     -0.0000001995209765116     -0.0000001789496836506     -0.0000000834481987645     0.0000000645611984412     0.0000001961126914753     0.0000002381364754416     0.0000001608223798517     -0.0000000000020616051 
    -0.0000000000031477467     -0.0000002613837897479     -0.0000003966874237059     -0.0000003480238635404     -0.0000001534905594091     0.0000000812060024921     0.0000002479425432111     0.0000002971251360074     0.0000002610800112367     0.0000002234361004016     0.0000001840637834933     0.0000001442976670657     0.0000001087565435660     0.0000000775607776571     0.0000000496929707340     0.0000000241891679203     0.0000000000019581024     -0.0000000241853231094     -0.0000000496893194358     -0.0000000775573851246     -0.0000001087533945523     -0.0000001442946577118     -0.0000001840607360411     -0.0000002234328178876     -0.0000002610764522311     -0.0000002971218010245     -0.0000002479400982599     -0.0000000812050621481     0.0000001534896002284     0.0000003480209225655     0.0000003966827465440     0.0000002613779201318     -0.0000000000031477467 
    -0.0000000000035465704     -0.0000003742647641152     -0.0000005776558501782     -0.0000005279404144129     -0.0000002698837197344     0.0000000581299271222     0.0000003070191296109     0.0000003974481976918     0.0000003534080880149     0.0000002803755405555     0.0000002279653026359     0.0000001762438013614     0.0000001314974711305     0.0000000933809509366     0.0000000598663310737     0.0000000292138892207     0.0000000000016274328     -0.0000000292106928689     -0.0000000598632953656     -0.0000000933781356690     -0.0000001314948734834     -0.0000001762413482512     -0.0000002279628667770     -0.0000002803729959553     -0.0000003534055978946     -0.0000003974463068874     -0.0000003070184273580     -0.0000000581308642806     0.0000002698809636536     0.0000005279359435064     0.0000005776499871995     0.0000003742579895954     -0.0000000000035465704 
    -0.0000000000030547485     -0.0000004790484908430     -0.0000007476113544297     -0.0000007011139446892     -0.0000003887914431590     0.0000000231065652406     0.0000003491937902678     0.0000004828227932125     0.0000004392801306631     0.0000003326964283455     0.0000002649505639288     0.0000002023460469580     0.0000001494277044070     0.0000001054585158564     0.0000000674568544735     0.0000000329159359019     0.0000000000011674529     -0.0000000329136424589     -0.0000000674546761140     -0.0000001054564989232     -0.0000001494258533890     -0.0000002023443190464     -0.0000002649488833440     -0.0000003326947403392     -0.0000004392786787562     -0.0000004828220198050     -0.0000003491941325939     -0.0000000231082996200     0.0000003887882884229     0.0000007011095537607     0.0000007476060278183     0.0000004790425806571     -0.0000000000030547485 
    -0.0000000000017613069     -0.0000005534383976326     -0.0000008691836239175     -0.0000008269084821235     -0.0000004782168440842     -0.0000000080257882753     0.0000003732207550941     0.0000005395404067712     0.0000004995880936999     0.0000003727952829306     0.0000002898453971669     0.0000002196053156521     0.0000001610225140304     0.0000001131046246056     0.0000000721874810335     0.0000000352027943659     0.0000000000006098620     -0.0000000352015961282     -0.0000000721863428809     -0.0000001131035719998     -0.0000001610215517590     -0.0000002196044251452     -0.0000002898445450721     -0.0000003727944597055     -0.0000004995874634637     -0.0000005395402177647     -0.0000003732212388034     0.0000000080245068019     0.0000004782147876716     0.0000008269057862306     0.0000008691804687007     0.0000005534349671612     -0.0000000000017613069 
    -0.0000000000000000000     -0.0000005803562934814     -0.0000009133402620570     -0.0000008729416807294     -0.0000005114750653512     -0.0000000204136511516     0.0000003808526453412     0.0000005593452067024     0.0000005212350736308     0.0000003877454855309     0.0000002986464848610     0.0000002256582157069     0.0000001650461763753     0.0000001157304415019     0.0000000737991525588     0.0000000359781779177     -0.0000000000000000000     -0.0000000359781779177     -0.0000000737991525588     -0.0000001157304415019     -0.0000001650461763753     -0.0000002256582157069     -0.0000002986464848610     -0.0000003877454855309     -0.0000005212350736308     -0.0000005593452067024     -0.0000003808526453412     0.0000000204136511516     0.0000005114750653512     0.0000008729416807294     0.0000009133402620570     0.0000005803562934814     -0.0000000000000000000 
    -0.0000000000000000000     -0.0000006878656470495     -0.0000011254106798663     -0.0000011808754838185     -0.0000008954935262626     -0.0000004453895852687     -0.0000000371045210618     0.0000001987524714233     0.0000002584510131448     0.0000002453473549484     0.0000002178209939527     0.0000001785522771054     0.0000001388455982101     0.0000001014953187791     0.0000000663199807110     0.0000000327139622138     0.0000000000000000000     -0.0000000327139622138     -0.0000000663199807110     -0.0000001014953187791     -0.0000001388455982101     -0.0000001785522771054     -0.0000002178209939527     -0.0000002453473549484     -0.0000002584510131448     -0.0000001987524714233     0.0000000371045210618     0.0000004453895852687     0.0000008954935262626     0.0000011808754838185     0.0000011254106798663     0.0000006878656470495     -0.0000000000000000000 
    0.0000000000010070510     -0.0000006572885689505     -0.0000010741981231567     -0.0000011247712833060     -0.0000008496381934572     -0.0000004186775658271     -0.0000000299326511450     0.0000001927650086209     0.0000002484361983312     0.0000002381707000120     0.0000002118521539474     0.0000001740759322646     0.0000001356395187939     0.0000000992768099981     0.0000000649050524161     0.0000000320193629173     -0.0000000000005200430     -0.0000000320203762390     -0.0000000649059904523     -0.0000000992776389674     -0.0000001356402278670     -0.0000001740765376758     -0.0000002118526946256     -0.0000002381712203520     -0.0000002484366794160     -0.0000001927653042787     0.0000000299326933286     0.0000004186780486268     0.0000008496391415655     0.0000011247726545158     0.0000010741998336781     0.0000006572905036947     0.0000000000010070510 
    0.0000000000016700715     -0.0000005726603695283     -0.0000009327721394572     -0.0000009704769572853     -0.0000007244546722552     -0.0000003469018516498     -0.0000000120730179775     0.0000001750048545955     0.0000002208149784069     0.0000002177828926775     0.0000001948124369605     0.0000001611748359696     0.0000001262938982425     0.0000000927427984720     0.0000000607070486825     0.0000000299505420347     -0.0000000000009866898     -0.0000000299524636251     -0.0000000607088253002     -0.0000000927443670013     -0.0000001262952414240     -0.0000001611759902891     -0.0000001948134856265     -0.0000002177839352588     -0.0000002208160328641     -0.0000001750056800862     0.0000000120727062960     0.0000003469022738698     0.0000007244559238857     0.0000009704790086880     0.0000009327748618013     0.0000005726635469582     0.0000000000016700715 
    0.0000000000017697904     -0.0000004529777475315     -0.0000007336597675527     -0.0000007550654745523     -0.0000005523206772160     -0.0000002514752614428     0.0000000076688896180     0.0000001468497999298     0.0000001826602898759     0.0000001873001166355     0.0000001690332391019     0.0000001412539892674     0.0000001115213222845     0.0000000821976152789     0.0000000538317047322     0.0000000265347283511     -0.0000000000013579512     -0.0000000265373707168     -0.0000000538341428271     -0.0000000821997644777     -0.0000001115231659833     -0.0000001412555892114     -0.0000001690347274901     -0.0000001873016589057     -0.0000001826620011611     -0.0000001468514510820     -0.0000000076701011163     0.0000002514748378626     0.0000005523212667528     0.0000007550671370306     0.0000007336623894308     0.0000004529810430446     0.0000000000017697904 
    0.0000000000012979557     -0.0000003229846066352     -0.0000005188693181308     -0.0000005257063096100     -0.0000003734286862207     -0.0000001577221884498     0.0000000205092433929     0.0000001124549076954     0.0000001445231373172     0.0000001509556120097     0.0000001376062035602     0.0000001161393293191     0.0000000922099560411     0.0000000679791986856     0.0000000443604375152     0.0000000217730945177     -0.0000000000016090152     -0.0000000217762218661     -0.0000000443633155083     -0.0000000679817309023     -0.0000000922121339888     -0.0000001161412423953     -0.0000001376080303995     -0.0000001509575820964     -0.0000001445254569231     -0.0000001124575176964     -0.0000000205117193663     0.0000001577203121427     0.0000003734277960503     0.0000005257066109287     0.0000005188707684251     0.0000003229868946775     0.0000000000012979557 
    0.0000000000004669600     -0.0000002054362407056     -0.0000003264898431721     -0.0000003240670247712     -0.0000002216562999351     -0.0000000848242620038     0.0000000228106859695     0.0000000796494819483     0.0000001081721125567     0.0000001129397613030     0.0000001035024008101     0.0000000875250962626     0.0000000691042480646     0.0000000502744197226     0.0000000322425348764     0.0000000155886380049     -0.0000000000017304361     -0.0000000155919969887     -0.0000000322456171063     -0.0000000502771274337     -0.0000000691065870827     -0.0000000875271818355     -0.0000001035044461902     -0.0000001129420410312     -0.0000001081748884096     -0.0000000796528856552     -0.0000000228143871526     0.0000000848208127509     0.0000002216536362415     0.0000003240655061062     0.0000003264895266341     0.0000002054368350830     0.0000000000004669600 
    -0.0000000000003776006     -0.0000001148921803135     -0.0000001802219004378     -0.0000001746571517675     -0.0000001146940183097     -0.0000000395668815354     0.0000000183609684001     0.0000000560004344892     0.0000000741749832025     0.0000000763600295463     0.0000000688434859646     0.0000000565266746520     0.0000000425419140148     0.0000000289570944123     0.0000000171916840249     0.0000000077724685538     -0.0000000000017223779     -0.0000000077758076473     -0.0000000171947402047     -0.0000000289597790727     -0.0000000425442517788     -0.0000000565288016802     -0.0000000688456324665     -0.0000000763624840134     -0.0000000741780239207     -0.0000000560042285191     -0.0000000183654332043     0.0000000395622899377     0.0000001146899304876     0.0000001746540434053     0.0000001802199211939     0.0000001148910894824     -0.0000000000003776006 
    -0.0000000000009115459     -0.0000000554420597683     -0.0000000858359240530     -0.0000000814617189791     -0.0000000520155262283     -0.0000000161358292818     0.0000000152457300866     0.0000000360989041483     0.0000000444719950912     0.0000000427258948439     0.0000000345689150926     0.0000000234669150953     0.0000000123069913273     0.0000000034736499125     -0.0000000014033926869     -0.0000000020679230141     -0.0000000000015915170     0.0000000020648407117     0.0000000014005755366     -0.0000000034761322123     -0.0000000123091849291     -0.0000000234689711668     -0.0000000345710630100     -0.0000000427284040051     -0.0000000444751137238     -0.0000000361027695992     -0.0000000152502790960     0.0000000161309098410     0.0000000520108506420     0.0000000814578153007     0.0000000858329997413     0.0000000554399322327     -0.0000000000009115459 
    -0.0000000000009685169     -0.0000000225671504493     -0.0000000346648623529     -0.0000000325545053846     -0.0000000199007589171     -0.0000000028121408157     0.0000000119113006531     0.0000000197087729505     0.0000000193425328471     0.0000000120857456456     0.0000000005469413069     -0.0000000120802091883     -0.0000000223842199249     -0.0000000272067435330     -0.0000000245365614857     -0.0000000145461697635     -0.0000000000013541641     0.0000000145435483531     0.0000000245341639409     0.0000000272046130726     0.0000000223822883661     0.0000000120783160648     -0.0000000005490108582     -0.0000000120882164258     -0.0000000193455848888     -0.0000000197124717752     -0.0000000119155319748     0.0000000028076837664     0.0000000198964935800     0.0000000325508302382     0.0000000346619942145     0.0000000225649546219     -0.0000000000009685169 
    -0.0000000000005818822     -0.0000000072038099402     -0.0000000105640002035     -0.0000000084265551034     -0.0000000021434081149     0.0000000048133373133     0.0000000086245705783     0.0000000066310609438     -0.0000000020167333575     -0.0000000163869149823     -0.0000000339947974328     -0.0000000510181017720     -0.0000000627243036500     -0.0000000645005338473     -0.0000000535313241004     -0.0000000304714920891     -0.0000000000010421504     0.0000000304694736974     0.0000000535294700448     0.0000000644988571891     0.0000000627227169531     0.0000000510164415196     0.0000000339928720105     0.0000000163845571293     0.0000000020138496005     -0.0000000066344441808     -0.0000000086282758196     -0.0000000048170494373     0.0000000021400593100     0.0000000084238597445     0.0000000105620443034     0.0000000072024299048     -0.0000000000005818822 
    -0.0000000000001128689     0.0000000005181333041     0.0000000022115034617     0.0000000052463245171     0.0000000083959603852     0.0000000094313393311     0.0000000059390430455     -0.0000000038941845341     -0.0000000207338628153     -0.0000000436852413646     -0.0000000698811684392     -0.0000000942328145843     -0.0000001098705536280     -0.0000001098078238431     -0.0000000897190698608     -0.0000000506666171530     -0.0000000000007033350     0.0000000506652516708     0.0000000897178006779     0.0000001098066351632     0.0000001098693455843     0.0000000942314290969     0.0000000698794429693     0.0000000436830669692     0.0000000207312283156     0.0000000038912002962     -0.0000000059421468415     -0.0000000094342511692     -0.0000000083983686472     -0.0000000052480222155     -0.0000000022124712141     -0.0000000005185586953     -0.0000000000001128689 
    0.0000000000002173550     0.0000000048386114735     0.0000000095508992199     0.0000000134513073846     0.0000000151059862507     0.0000000125741001486     0.0000000038575230234     -0.0000000126473015364     -0.0000000376710334910     -0.0000000703705927829     -0.0000001073521068660     -0.0000001418589975076     -0.0000001640969517291     -0.0000001636271547475     -0.0000001336828165693     -0.0000000755284083957     -0.0000000000003917051     0.0000000755276419734     0.0000001336820812893     0.0000001636264120279     0.0000001640960996685     0.0000001418578947818     0.0000001073506252626     0.0000000703686742801     0.0000000376687275753     0.0000000126447719666     -0.0000000038600226261     -0.0000000125762798302     -0.0000000151075949986     -0.0000000134522098759     -0.0000000095511244131     -0.0000000048383521139     0.0000000000002173550 
    0.0000000000003888821     0.0000000074129399932     0.0000000140666357337     0.0000000187587716195     0.0000000197306506327     0.0000000149012273563     0.0000000022047122277     -0.0000000201208115816     -0.0000000531176062376     -0.0000000961786050230     -0.0000001454748417039     -0.0000001924067580446     -0.0000002236324789323     -0.0000002242529115474     -0.0000001841007857616     -0.0000001043419542422     -0.0000000000001512183     0.0000001043416489473     0.0000001841004594701     0.0000002242525124643     0.0000002236319149420     0.0000001924059163632     0.0000001454736327178     0.0000000961770101382     0.0000000531157061803     0.0000000201187834693     -0.0000000022066278328     -0.0000000149027814689     -0.0000000197316499422     -0.0000000187591328913     -0.0000000140664115949     -0.0000000074123079897     0.0000000000003888821 
    0.0000000000004235327     0.0000000090556093918     0.0000000170294959065     0.0000000223855360820     0.0000000230412354725     0.0000000166354235758     0.0000000008438714298     -0.0000000264346534104     -0.0000000667302128742     -0.0000001198728993562     -0.0000001817953634072     -0.0000002421144066727     -0.0000002836982602190     -0.0000002866225779974     -0.0000002368855340545     -0.0000001359735451716     -0.0000000000000094039     0.0000001359735152306     0.0000002368854590510     0.0000002866223978196     0.0000002836979017643     0.0000002421137928743     0.0000001817944428402     0.0000001198716791116     0.0000000667287768597     0.0000000264331564868     -0.0000000008452327924     -0.0000000166364566191     -0.0000000230418002420     -0.0000000223855830229     -0.0000000170290794610     -0.0000000090548750746     0.0000000000004235327 
    0.0000000000003505250     0.0000000101197903486     0.0000000189822033399     0.0000000248326168355     0.0000000253279238281     0.0000000178373202036     -0.0000000002443090090     -0.0000000313898990498     -0.0000000776587288167     -0.0000001394038643555     -0.0000002125023057632     -0.0000002850837066571     -0.0000003365736725394     -0.0000003425927742847     -0.0000002899778200012     -0.0000001690467533409     0.0000000000000383162     0.0000001690468178381     0.0000002899778419393     0.0000003425927064406     0.0000003365734560262     0.0000002850832981263     0.0000002125016836774     0.0000001394030461890     0.0000000776577806371     0.0000000313889308696     0.0000000002434552903     -0.0000000178379306706     -0.0000000253282004164     -0.0000000248325313104     -0.0000000189817975514     -0.0000000101191664140     0.0000000000003505250 
    0.0000000000001977393     0.0000000107355087710     0.0000000201204819774     0.0000000262726755111     0.0000000266832018982     0.0000000185371720504     -0.0000000009752559211     -0.0000000346082023246     -0.0000000848283605341     -0.0000001524132847271     -0.0000002332756464497     -0.0000003145606468330     -0.0000003732668892830     -0.0000003850804277174     -0.0000003310935543536     -0.0000001943287126228     0.0000000000000308611     0.0000001943287664632     0.0000003310935821383     0.0000003850804048554     0.0000003732667845119     0.0000003145604399502     0.0000002332753320686     0.0000001524128761846     0.0000000848278935528     0.0000000346077328022     0.0000000009748508932     -0.0000000185374488620     -0.0000000266833060702     -0.0000000262725939911     -0.0000000201202369128     -0.0000000107351525499     0.0000000000001977393 
    -0.0000000000000000000     0.0000000109388070109     0.0000000204972368671     0.0000000267505170943     0.0000000271331655310     0.0000000187657107157     -0.0000000012358815194     -0.0000000357299991721     -0.0000000873361045995     -0.0000001569947000477     -0.0000002406446918945     -0.0000003250872124171     -0.0000003864437252031     -0.0000004012586227400     -0.0000003465633974184     -0.0000002037903969299     0.0000000000000000000     0.0000002037903969299     0.0000003465633974184     0.0000004012586227400     0.0000003864437252031     0.0000003250872124171     0.0000002406446918945     0.0000001569947000477     0.0000000873361045995     0.0000000357299991721     0.0000000012358815194     -0.0000000187657107157     -0.0000000271331655310     -0.0000000267505170943     -0.0000000204972368671     -0.0000000109388070109     -0.0000000000000000000 
    -0.0000000000001977393     0.0000000107351525499     0.0000000201202369128     0.0000000262725939911     0.0000000266833060702     0.0000000185374488620     -0.0000000009748508932     -0.0000000346077328022     -0.0000000848278935528     -0.0000001524128761846     -0.0000002332753320686     -0.0000003145604399502     -0.0000003732667845119     -0.0000003850804048554     -0.0000003310935821383     -0.0000001943287664632     -0.0000000000000308611     0.0000001943287126228     0.0000003310935543536     0.0000003850804277174     0.0000003732668892830     0.0000003145606468330     0.0000002332756464497     0.0000001524132847271     0.0000000848283605341     0.0000000346082023246     0.0000000009752559211     -0.0000000185371720504     -0.0000000266832018982     -0.0000000262726755111     -0.0000000201204819774     -0.0000000107355087710     -0.0000000000001977393 
    -0.0000000000003505250     0.0000000101191664140     0.0000000189817975514     0.0000000248325313104     0.0000000253282004164     0.0000000178379306706     -0.0000000002434552903     -0.0000000313889308696     -0.0000000776577806371     -0.0000001394030461890     -0.0000002125016836774     -0.0000002850832981263     -0.0000003365734560262     -0.0000003425927064406     -0.0000002899778419393     -0.0000001690468178381     -0.0000000000000383162     0.0000001690467533409     0.0000002899778200012     0.0000003425927742847     0.0000003365736725394     0.0000002850837066571     0.0000002125023057632     0.0000001394038643555     0.0000000776587288167     0.0000000313898990498     0.0000000002443090090     -0.0000000178373202036     -0.0000000253279238281     -0.0000000248326168355     -0.0000000189822033399     -0.0000000101197903486     -0.0000000000003505250 
    -0.0000000000004235327     0.0000000090548750746     0.0000000170290794610     0.0000000223855830229     0.0000000230418002420     0.0000000166364566191     0.0000000008452327924     -0.0000000264331564868     -0.0000000667287768597     -0.0000001198716791116     -0.0000001817944428402     -0.0000002421137928743     -0.0000002836979017643     -0.0000002866223978196     -0.0000002368854590510     -0.0000001359735152306     0.0000000000000094039     0.0000001359735451716     0.0000002368855340545     0.0000002866225779974     0.0000002836982602190     0.0000002421144066727     0.0000001817953634072     0.0000001198728993562     0.0000000667302128742     0.0000000264346534104     -0.0000000008438714298     -0.0000000166354235758     -0.0000000230412354725     -0.0000000223855360820     -0.0000000170294959065     -0.0000000090556093918     -0.0000000000004235327 
    -0.0000000000003888821     0.0000000074123079897     0.0000000140664115949     0.0000000187591328913     0.0000000197316499422     0.0000000149027814689     0.0000000022066278328     -0.0000000201187834693     -0.0000000531157061803     -0.0000000961770101382     -0.0000001454736327178     -0.0000001924059163632     -0.0000002236319149420     -0.0000002242525124643     -0.0000001841004594701     -0.0000001043416489473     0.0000000000001512183     0.0000001043419542422     0.0000001841007857616     0.0000002242529115474     0.0000002236324789323     0.0000001924067580446     0.0000001454748417039     0.0000000961786050230     0.0000000531176062376     0.0000000201208115816     -0.0000000022047122277     -0.0000000149012273563     -0.0000000197306506327     -0.0000000187587716195     -0.0000000140666357337     -0.0000000074129399932     -0.0000000000003888821 
    -0.0000000000002173550     0.0000000048383521139     0.0000000095511244131     0.0000000134522098759     0.0000000151075949986     0.0000000125762798302     0.0000000038600226261     -0.0000000126447719666     -0.0000000376687275753     -0.0000000703686742801     -0.0000001073506252626     -0.0000001418578947818     -0.0000001640960996685     -0.0000001636264120279     -0.0000001336820812893     -0.0000000755276419734     0.0000000000003917051     0.0000000755284083957     0.0000001336828165693     0.0000001636271547475     0.0000001640969517291     0.0000001418589975076     0.0000001073521068660     0.0000000703705927829     0.0000000376710334910     0.0000000126473015364     -0.0000000038575230234     -0.0000000125741001486     -0.0000000151059862507     -0.0000000134513073846     -0.0000000095508992199     -0.0000000048386114735     -0.0000000000002173550 
    0.0000000000001128689     0.0000000005185586953     0.0000000022124712141     0.0000000052480222155     0.0000000083983686472     0.0000000094342511692     0.0000000059421468415     -0.0000000038912002962     -0.0000000207312283156     -0.0000000436830669692     -0.0000000698794429693     -0.0000000942314290969     -0.0000001098693455843     -0.0000001098066351632     -0.0000000897178006779     -0.0000000506652516708     0.0000000000007033350     0.0000000506666171530     0.0000000897190698608     0.0000001098078238431     0.0000001098705536280     0.0000000942328145843     0.0000000698811684392     0.0000000436852413646     0.0000000207338628153     0.0000000038941845341     -0.0000000059390430455     -0.0000000094313393311     -0.0000000083959603852     -0.0000000052463245171     -0.0000000022115034617     -0.0000000005181333041     0.0000000000001128689 
    0.0000000000005818822     -0.0000000072024299048     -0.0000000105620443034     -0.0000000084238597445     -0.0000000021400593100     0.0000000048170494373     0.0000000086282758196     0.0000000066344441808     -0.0000000020138496005     -0.0000000163845571293     -0.0000000339928720105     -0.0000000510164415196     -0.0000000627227169531     -0.0000000644988571891     -0.0000000535294700448     -0.0000000304694736974     0.0000000000010421504     0.0000000304714920891     0.0000000535313241004     0.0000000645005338473     0.0000000627243036500     0.0000000510181017720     0.0000000339947974328     0.0000000163869149823     0.0000000020167333575     -0.0000000066310609438     -0.0000000086245705783     -0.0000000048133373133     0.0000000021434081149     0.0000000084265551034     0.0000000105640002035     0.0000000072038099402     0.0000000000005818822 
    0.0000000000009685169     -0.0000000225649546219     -0.0000000346619942145     -0.0000000325508302382     -0.0000000198964935800     -0.0000000028076837664     0.0000000119155319748     0.0000000197124717752     0.0000000193455848888     0.0000000120882164258     0.0000000005490108582     -0.0000000120783160648     -0.0000000223822883661     -0.0000000272046130726     -0.0000000245341639409     -0.0000000145435483531     0.0000000000013541641     0.0000000145461697635     0.0000000245365614857     0.0000000272067435330     0.0000000223842199249     0.0000000120802091883     -0.0000000005469413069     -0.0000000120857456456     -0.0000000193425328471     -0.0000000197087729505     -0.0000000119113006531     0.0000000028121408157     0.0000000199007589171     0.0000000325545053846     0.0000000346648623529     0.0000000225671504493     0.0000000000009685169 
    0.0000000000009115459     -0.0000000554399322327     -0.0000000858329997413     -0.0000000814578153007     -0.0000000520108506420     -0.0000000161309098410     0.0000000152502790960     0.0000000361027695992     0.0000000444751137238     0.0000000427284040051     0.0000000345710630100     0.0000000234689711668     0.0000000123091849291     0.0000000034761322123     -0.0000000014005755366     -0.0000000020648407117     0.0000000000015915170     0.0000000020679230141     0.0000000014033926869     -0.0000000034736499125     -0.0000000123069913273     -0.0000000234669150953     -0.0000000345689150926     -0.0000000427258948439     -0.0000000444719950912     -0.0000000360989041483     -0.0000000152457300866     0.0000000161358292818     0.0000000520155262283     0.0000000814617189791     0.0000000858359240530     0.0000000554420597683     0.0000000000009115459 
    0.0000000000003776006     -0.0000001148910894824     -0.0000001802199211939     -0.0000001746540434053     -0.0000001146899304876     -0.0000000395622899377     0.0000000183654332043     0.0000000560042285191     0.0000000741780239207     0.0000000763624840134     0.0000000688456324665     0.0000000565288016802     0.0000000425442517788     0.0000000289597790727     0.0000000171947402047     0.0000000077758076473     0.0000000000017223779     -0.0000000077724685538     -0.0000000171916840249     -0.0000000289570944123     -0.0000000425419140148     -0.0000000565266746520     -0.0000000688434859646     -0.0000000763600295463     -0.0000000741749832025     -0.0000000560004344892     -0.0000000183609684001     0.0000000395668815354     0.0000001146940183097     0.0000001746571517675     0.0000001802219004378     0.0000001148921803135     0.0000000000003776006 
    -0.0000000000004669600     -0.0000002054368350830     -0.0000003264895266341     -0.0000003240655061062     -0.0000002216536362415     -0.0000000848208127509     0.0000000228143871526     0.0000000796528856552     0.0000001081748884096     0.0000001129420410312     0.0000001035044461902     0.0000000875271818355     0.0000000691065870827     0.0000000502771274337     0.0000000322456171063     0.0000000155919969887     0.0000000000017304361     -0.0000000155886380049     -0.0000000322425348764     -0.0000000502744197226     -0.0000000691042480646     -0.0000000875250962626     -0.0000001035024008101     -0.0000001129397613030     -0.0000001081721125567     -0.0000000796494819483     -0.0000000228106859695     0.0000000848242620038     0.0000002216562999351     0.0000003240670247712     0.0000003264898431721     0.0000002054362407056     -0.0000000000004669600 
    -0.0000000000012979557     -0.0000003229868946775     -0.0000005188707684251     -0.0000005257066109287     -0.0000003734277960503     -0.0000001577203121427     0.0000000205117193663     0.0000001124575176964     0.0000001445254569231     0.0000001509575820964     0.0000001376080303995     0.0000001161412423953     0.0000000922121339888     0.0000000679817309023     0.0000000443633155083     0.0000000217762218661     0.0000000000016090152     -0.0000000217730945177     -0.0000000443604375152     -0.0000000679791986856     -0.0000000922099560411     -0.0000001161393293191     -0.0000001376062035602     -0.0000001509556120097     -0.0000001445231373172     -0.0000001124549076954     -0.0000000205092433929     0.0000001577221884498     0.0000003734286862207     0.0000005257063096100     0.0000005188693181308     0.0000003229846066352     -0.0000000000012979557 
    -0.0000000000017697904     -0.0000004529810430446     -0.0000007336623894308     -0.0000007550671370306     -0.0000005523212667528     -0.0000002514748378626     0.0000000076701011163     0.0000001468514510820     0.0000001826620011611     0.0000001873016589057     0.0000001690347274901     0.0000001412555892114     0.0000001115231659833     0.0000000821997644777     0.0000000538341428271     0.0000000265373707168     0.0000000000013579512     -0.0000000265347283511     -0.0000000538317047322     -0.0000000821976152789     -0.0000001115213222845     -0.0000001412539892674     -0.0000001690332391019     -0.0000001873001166355     -0.0000001826602898759     -0.0000001468497999298     -0.0000000076688896180     0.0000002514752614428     0.0000005523206772160     0.0000007550654745523     0.0000007336597675527     0.0000004529777475315     -0.0000000000017697904 
    -0.0000000000016700715     -0.0000005726635469582     -0.0000009327748618013     -0.0000009704790086880     -0.0000007244559238857     -0.0000003469022738698     -0.0000000120727062960     0.0000001750056800862     0.0000002208160328641     0.0000002177839352588     0.0000001948134856265     0.0000001611759902891     0.0000001262952414240     0.0000000927443670013     0.0000000607088253002     0.0000000299524636251     0.0000000000009866898     -0.0000000299505420347     -0.0000000607070486825     -0.0000000927427984720     -0.0000001262938982425     -0.0000001611748359696     -0.0000001948124369605     -0.0000002177828926775     -0.0000002208149784069     -0.0000001750048545955     0.0000000120730179775     0.0000003469018516498     0.0000007244546722552     0.0000009704769572853     0.0000009327721394572     0.0000005726603695283     -0.0000000000016700715 
    -0.0000000000010070510     -0.0000006572905036947     -0.0000010741998336781     -0.0000011247726545158     -0.0000008496391415655     -0.0000004186780486268     -0.0000000299326933286     0.0000001927653042787     0.0000002484366794160     0.0000002381712203520     0.0000002118526946256     0.0000001740765376758     0.0000001356402278670     0.0000000992776389674     0.0000000649059904523     0.0000000320203762390     0.0000000000005200430     -0.0000000320193629173     -0.0000000649050524161     -0.0000000992768099981     -0.0000001356395187939     -0.0000001740759322646     -0.0000002118521539474     -0.0000002381707000120     -0.0000002484361983312     -0.0000001927650086209     0.0000000299326511450     0.0000004186775658271     0.0000008496381934572     0.0000011247712833060     0.0000010741981231567     0.0000006572885689505     -0.0000000000010070510 
    -0.0000000000000000000     -0.0000006878656470495     -0.0000011254106798663     -0.0000011808754838185     -0.0000008954935262626     -0.0000004453895852687     -0.0000000371045210618     0.0000001987524714233     0.0000002584510131448     0.0000002453473549484     0.0000002178209939527     0.0000001785522771054     0.0000001388455982101     0.0000001014953187791     0.0000000663199807110     0.0000000327139622138     0.0000000000000000000     -0.0000000327139622138     -0.0000000663199807110     -0.0000001014953187791     -0.0000001388455982101     -0.0000001785522771054     -0.0000002178209939527     -0.0000002453473549484     -0.0000002584510131448     -0.0000001987524714233     0.0000000371045210618     0.0000004453895852687     0.0000008954935262626     0.0000011808754838185     0.0000011254106798663     0.0000006878656470495     -0.0000000000000000000 
    -0.0000000000000000000     -0.0000006681150842986     -0.0000011127020690872     -0.0000012142438292830     -0.0000010039387049869     -0.0000006298428318178     -0.0000002672121482861     -0.0000000279151443812     0.0000000840813705490     0.0000001310882349843     0.0000001392741405525     0.0000001277546418526     0.0000001071058720477     0.0000000821275985896     0.0000000551515317905     0.0000000275677718907     0.0000000000000000000     -0.0000000275677718907     -0.0000000551515317905     -0.0000000821275985896     -0.0000001071058720477     -0.0000001277546418526     -0.0000001392741405525     -0.0000001310882349843     -0.0000000840813705490     0.0000000279151443812     0.0000002672121482861     0.0000006298428318178     0.0000010039387049869     0.0000012142438292830     0.0000011127020690872     0.0000006681150842986     -0.0000000000000000000 
    0.0000000000004021450     -0.0000006383381733634     -0.0000010622922406448     -0.0000011576489284486     -0.0000009551067089528     -0.0000005972584778571     -0.0000002519521289636     -0.0000000250529475191     0.0000000821250276603     0.0000001276491194627     0.0000001357628276546     0.0000001247474233583     0.0000001047273107347     0.0000000803627483270     0.0000000539778956182     0.0000000269799517035     -0.0000000000004297631     -0.0000000269807802855     -0.0000000539786367445     -0.0000000803633613207     -0.0000001047277797521     -0.0000001247477625462     -0.0000001357630789987     -0.0000001276493405246     -0.0000000821252718182     0.0000000250527016023     0.0000002519519682879     0.0000005972584768999     0.0000009551069112861     0.0000011576493449492     0.0000010622928519065     0.0000006383389254943     0.0000000000004021450 
    0.0000000000005964061     -0.0000005560227920194     -0.0000009231519115760     -0.0000010018753029128     -0.0000008213344570197     -0.0000005087383362053     -0.0000002112168579030     -0.0000000179431459807     0.0000000765702350237     0.0000001177510878491     0.0000001256226400484     0.0000001159814806700     0.0000000977202687266     0.0000000751165930270     0.0000000504674754921     0.0000000252160071836     -0.0000000000008055803     -0.0000000252175582800     -0.0000000504688574000     -0.0000000751177286126     -0.0000000977211302088     -0.0000001159820994242     -0.0000001256231031906     -0.0000001177515161999     -0.0000000765707452336     0.0000000179425445467     0.0000002112163236293     0.0000005087380274225     0.0000008213344893805     0.0000010018757309837     0.0000009231527190934     0.0000005560238802313     0.0000000000005964061 
    0.0000000000004708032     -0.0000004398352890015     -0.0000007273737246541     -0.0000007839636450619     -0.0000006360327725515     -0.0000003882373105145     -0.0000001577400319406     -0.0000000098610836390     0.0000000677001250144     0.0000001025809077378     0.0000001099352972862     0.0000001021466884068     0.0000000864184839223     0.0000000664979373540     0.0000000446256665018     0.0000000222590485166     -0.0000000000010887170     -0.0000000222611400920     -0.0000000446275176740     -0.0000000664994424737     -0.0000000864196105511     -0.0000001021474899785     -0.0000001099359085852     -0.0000001025815163318     -0.0000000677009188027     0.0000000098600073698     0.0000001577388541292     0.0000003882362808214     0.0000006360321131589     0.0000007839634972626     0.0000007273741080611     0.0000004398360780407     0.0000000000004708032 
    0.0000000000000649704     -0.0000003138851696426     -0.0000005162025257685     -0.0000005510928942942     -0.0000004411209416180     -0.0000002649784994974     -0.0000001060132283077     -0.0000000031753187387     0.0000000562976831916     0.0000000838478758681     0.0000000901812126212     0.0000000841478559239     0.0000000712112635072     0.0000000545710514748     0.0000000363796776674     0.0000000180367491619     -0.0000000000012595313     -0.0000000180391611539     -0.0000000363817925559     -0.0000000545727460608     -0.0000000712125103807     -0.0000000841487352878     -0.0000000901819045566     -0.0000000838486272329     -0.0000000562987458281     0.0000000031737652882     0.0000001060112826055     0.0000002649764972302     0.0000004411192263859     0.0000005510917200858     0.0000005162019741753     0.0000003138851117611     0.0000000000000649704 
    -0.0000000000004428562     -0.0000002001759248547     -0.0000003269469127392     -0.0000003452344926238     -0.0000002727980732067     -0.0000001627128230934     -0.0000000658911933341     0.0000000016085502673     0.0000000435092922123     0.0000000633481882635     0.0000000678084974104     0.0000000627789436767     0.0000000523068368150     0.0000000391766614522     0.0000000254480150379     0.0000000123499272797     -0.0000000000013098755     -0.0000000123524248058     -0.0000000254501775632     -0.0000000391783615292     -0.0000000523080629000     -0.0000000627798059429     -0.0000000678092124007     -0.0000000633490411114     -0.0000000435105712941     -0.0000000016104605965     0.0000000658886239742     0.0000001627099337553     0.0000002727953145087     0.0000003452322263628     0.0000003269452899976     0.0000002001748341287     -0.0000000000004428562 
    -0.0000000000008178396     -0.0000001127780836908     -0.0000001830090141199     -0.0000001917196506133     -0.0000001512997615875     -0.0000000924320902783     -0.0000000384463905562     0.0000000039855457604     0.0000000304922123205     0.0000000424635285475     0.0000000437864501583     0.0000000383682699585     0.0000000294431456096     0.0000000196875978230     0.0000000111499398473     0.0000000047650500139     -0.0000000000012346840     -0.0000000047673901036     -0.0000000111519311255     -0.0000000196891232422     -0.0000000294442198270     -0.0000000383690341650     -0.0000000437871439386     -0.0000000424644454994     -0.0000000304936359951     -0.0000000039876662228     0.0000000384435559068     0.0000000924287432989     0.0000001512963806882     0.0000001917166732073     0.0000001830066471191     0.0000001127762426990     -0.0000000000008178396 
    -0.0000000000008792873     -0.0000000557828700445     -0.0000000905296184116     -0.0000000956936998970     -0.0000000781863922955     -0.0000000494279174097     -0.0000000190620648688     0.0000000045408632262     0.0000000180170774755     0.0000000218191950137     0.0000000183066442987     0.0000000104988384888     0.0000000016095743262     -0.0000000052621907162     -0.0000000078218868683     -0.0000000055180263922     -0.0000000000010337037     0.0000000055160849972     0.0000000078202789676     0.0000000052610088552     -0.0000000016103784853     -0.0000000104994354695     -0.0000000183072821369     -0.0000000218201457183     -0.0000000180185771554     -0.0000000045430431807     0.0000000190592415230     0.0000000494246743055     0.0000000781830767950     0.0000000956907032288     0.0000000905271742170     0.0000000557809176249     -0.0000000000008792873 
    -0.0000000000005759538     -0.0000000250049352319     -0.0000000413081190383     -0.0000000444097327852     -0.0000000356258469116     -0.0000000205152047359     -0.0000000056566042417     0.0000000040295240908     0.0000000062937742885     0.0000000012535145705     -0.0000000092563806204     -0.0000000220909545202     -0.0000000331133340507     -0.0000000379698831937     -0.0000000335760454491     -0.0000000197703292405     -0.0000000000007240749     0.0000000197689924712     0.0000000335749963605     0.0000000379691790842     0.0000000331128909309     0.0000000220905780380     0.0000000092558275533     -0.0000000012544720801     -0.0000000062952939973     -0.0000000040316464398     0.0000000056539908319     0.0000000205123609305     0.0000000356231148101     0.0000000444074117461     0.0000000413063411061     0.0000000250036081261     -0.0000000000005759538 
    -0.0000000000000982369     -0.0000000090700879371     -0.0000000141702005557     -0.0000000134322077134     -0.0000000079214130715     -0.0000000008928273328     0.0000000037827614991     0.0000000029953756451     -0.0000000049131876776     -0.0000000199200664168     -0.0000000400971083758     -0.0000000613161812361     -0.0000000774141825221     -0.0000000815607752561     -0.0000000689491903227     -0.0000000396940997092     -0.0000000000003520332     0.0000000396934826594     0.0000000689487903889     0.0000000815606097686     0.0000000774141369822     0.0000000613160478928     0.0000000400966603961     0.0000000199191314389     0.0000000049116973793     -0.0000000029973616868     -0.0000000037850543019     0.0000000008905170085     0.0000000079194029270     0.0000000134307395616     0.0000000141693457094     0.0000000090697114980     -0.0000000000000982369 
    0.0000000000002915256     0.0000000005105161844     0.0000000024649185667     0.0000000061917947040     0.0000000104717061902     0.0000000129268155238     0.0000000108102695839     0.0000000017003181346     -0.0000000160041819023     -0.0000000424756985180     -0.0000000754503530354     -0.0000001091236262973     -0.0000001340408648880     -0.0000001392551798856     -0.0000001168814212175     -0.0000000670593419641     0.0000000000000112253     0.0000000670594217954     0.0000001168816355314     0.0000001392555084490     0.0000001340411744345     0.0000001091237111148     0.0000000754500137623     0.0000000424748194149     0.0000000160027746856     -0.0000000017021102872     -0.0000000108121989358     -0.0000000129285812721     -0.0000000104730277618     -0.0000000061924938446     -0.0000000024649815118     -0.0000000005101069989     0.0000000000002915256 
    0.0000000000005373743     0.0000000064227906100     0.0000000129973626964     0.0000000191457025979     0.0000000233087244322     0.0000000232212072475     0.0000000163524937922     0.0000000002207079210     -0.0000000272489312455     -0.0000000667699883318     -0.0000001158001930213     -0.0000001663362874976     -0.0000002043007208575     -0.0000002127199850057     -0.0000001807091625551     -0.0000001056101340570     0.0000000000002673504     0.0000001056107086068     0.0000001807098176849     0.0000002127206586310     0.0000002043012638550     0.0000001663365148286     0.0000001157999440361     0.0000000667691984951     0.0000000272476683939     -0.0000000002222524117     -0.0000000163540483419     -0.0000000232224830959     -0.0000000233094855823     -0.0000000191458275399     -0.0000000129968795657     -0.0000000064218730593     0.0000000000005373743 
    0.0000000000006374513     0.0000000102622806195     0.0000000200235124038     0.0000000281539899674     0.0000000327121122459     0.0000000311971385510     0.0000000208237813680     -0.0000000014233210802     -0.0000000385544938768     -0.0000000922608198882     -0.0000001599608178308     -0.0000002311449015646     -0.0000002862241543189     -0.0000003098345125845     -0.0000002733281244842     -0.0000001622603186431     0.0000000000003435051     0.0000001622610333273     0.0000002733288919117     0.0000003098352778530     0.0000002862247645757     0.0000002311451677912     0.0000001599606262047     0.0000000922601479391     0.0000000385534359883     0.0000000014220748943     -0.0000000208249602913     -0.0000000311979980329     -0.0000000327124645368     -0.0000000281537570564     -0.0000000200227435369     -0.0000000102611388982     0.0000000000006374513 
    0.0000000000006117170     0.0000000128569991558     0.0000000248766937304     0.0000000345813625392     0.0000000396844058904     0.0000000373427038262     0.0000000243246904317     -0.0000000031557904974     -0.0000000493306576163     -0.0000001171993950004     -0.0000002044137412199     -0.0000002979418517414     -0.0000003842684431321     -0.0000004313216807337     -0.0000003856058737013     -0.0000002298684755025     0.0000000000002942797     0.0000002298690805069     0.0000003856065067950     0.0000004313222987127     0.0000003842689376209     0.0000002979420679733     0.0000002044135804383     0.0000001171988641573     0.0000000493298502773     0.0000000031548749482     -0.0000000243255072168     -0.0000000373432252164     -0.0000000396844933747     -0.0000000345809682972     -0.0000000248758691787     -0.0000000128558800697     0.0000000000006117170 
    0.0000000000004802909     0.0000000145842274975     0.0000000281526508452     0.0000000390082789190     0.0000000445992659381     0.0000000417681102272     0.0000000268324450127     -0.0000000047728278914     -0.0000000585059154330     -0.0000001387180750999     -0.0000002434558240169     -0.0000003609930515901     -0.0000004845592646283     -0.0000005515046882767     -0.0000004947663467137     -0.0000002950405922853     0.0000000000001922493     0.0000002950409842785     0.0000004947667483413     0.0000005515050698789     0.0000004845595610490     0.0000003609931733365     0.0000002434556933007     0.0000001387177057011     0.0000000585053796684     0.0000000047722432117     -0.0000000268329381467     -0.0000000417683803117     -0.0000000445992226396     -0.0000000390078948460     -0.0000000281519662471     -0.0000000145833388902     0.0000000000004802909 
    0.0000000000002647874     0.0000000155913529213     0.0000000300762861188     0.0000000416341228117     0.0000000475482621374     0.0000000444483438004     0.0000000283267651763     -0.0000000059552521014     -0.0000000647651430931     -0.0000001534762150846     -0.0000002704954406528     -0.0000004099277852968     -0.0000005597998545788     -0.0000006400901880073     -0.0000005744831399183     -0.0000003424161792877     0.0000000000000893574     0.0000003424163602246     0.0000005744833216935     0.0000006400903554960     0.0000005597999785143     0.0000004099278273313     0.0000002704953634275     0.0000001534760248540     0.0000000647648786738     0.0000000059549724798     -0.0000000283269904662     -0.0000000444484498042     -0.0000000475482045422     -0.0000000416338890803     -0.0000000300758978960     -0.0000000155908601658     0.0000000000002647874 
    -0.0000000000000000000     0.0000000159240447770     0.0000000307135514573     0.0000000425073858122     0.0000000485333018107     0.0000000453462648305     0.0000000288207454258     -0.0000000063928081765     -0.0000000669974761501     -0.0000001587474658860     -0.0000002801943415380     -0.0000004283769754526     -0.0000005877331526016     -0.0000006727241863982     -0.0000006037301691080     -0.0000003597626249491     0.0000000000000000000     0.0000003597626249491     0.0000006037301691080     0.0000006727241863982     0.0000005877331526016     0.0000004283769754526     0.0000002801943415380     0.0000001587474658860     0.0000000669974761501     0.0000000063928081765     -0.0000000288207454258     -0.0000000453462648305     -0.0000000485333018107     -0.0000000425073858122     -0.0000000307135514573     -0.0000000159240447770     -0.0000000000000000000 
    -0.0000000000002647874     0.0000000155908601658     0.0000000300758978960     0.0000000416338890803     0.0000000475482045422     0.0000000444484498042     0.0000000283269904662     -0.0000000059549724798     -0.0000000647648786738     -0.0000001534760248540     -0.0000002704953634275     -0.0000004099278273313     -0.0000005597999785143     -0.0000006400903554960     -0.0000005744833216935     -0.0000003424163602246     -0.0000000000000893574     0.0000003424161792877     0.0000005744831399183     0.0000006400901880073     0.0000005597998545788     0.0000004099277852968     0.0000002704954406528     0.0000001534762150846     0.0000000647651430931     0.0000000059552521014     -0.0000000283267651763     -0.0000000444483438004     -0.0000000475482621374     -0.0000000416341228117     -0.0000000300762861188     -0.0000000155913529213     -0.0000000000002647874 
    -0.0000000000004802909     0.0000000145833388902     0.0000000281519662471     0.0000000390078948460     0.0000000445992226396     0.0000000417683803117     0.0000000268329381467     -0.0000000047722432117     -0.0000000585053796684     -0.0000001387177057011     -0.0000002434556933007     -0.0000003609931733365     -0.0000004845595610490     -0.0000005515050698789     -0.0000004947667483413     -0.0000002950409842785     -0.0000000000001922493     0.0000002950405922853     0.0000004947663467137     0.0000005515046882767     0.0000004845592646283     0.0000003609930515901     0.0000002434558240169     0.0000001387180750999     0.0000000585059154330     0.0000000047728278914     -0.0000000268324450127     -0.0000000417681102272     -0.0000000445992659381     -0.0000000390082789190     -0.0000000281526508452     -0.0000000145842274975     -0.0000000000004802909 
    -0.0000000000006117170     0.0000000128558800697     0.0000000248758691787     0.0000000345809682972     0.0000000396844933747     0.0000000373432252164     0.0000000243255072168     -0.0000000031548749482     -0.0000000493298502773     -0.0000001171988641573     -0.0000002044135804383     -0.0000002979420679733     -0.0000003842689376209     -0.0000004313222987127     -0.0000003856065067950     -0.0000002298690805069     -0.0000000000002942797     0.0000002298684755025     0.0000003856058737013     0.0000004313216807337     0.0000003842684431321     0.0000002979418517414     0.0000002044137412199     0.0000001171993950004     0.0000000493306576163     0.0000000031557904974     -0.0000000243246904317     -0.0000000373427038262     -0.0000000396844058904     -0.0000000345813625392     -0.0000000248766937304     -0.0000000128569991558     -0.0000000000006117170 
    -0.0000000000006374513     0.0000000102611388982     0.0000000200227435369     0.0000000281537570564     0.0000000327124645368     0.0000000311979980329     0.0000000208249602913     -0.0000000014220748943     -0.0000000385534359883     -0.0000000922601479391     -0.0000001599606262047     -0.0000002311451677912     -0.0000002862247645757     -0.0000003098352778530     -0.0000002733288919117     -0.0000001622610333273     -0.0000000000003435051     0.0000001622603186431     0.0000002733281244842     0.0000003098345125845     0.0000002862241543189     0.0000002311449015646     0.0000001599608178308     0.0000000922608198882     0.0000000385544938768     0.0000000014233210802     -0.0000000208237813680     -0.0000000311971385510     -0.0000000327121122459     -0.0000000281539899674     -0.0000000200235124038     -0.0000000102622806195     -0.0000000000006374513 
    -0.0000000000005373743     0.0000000064218730593     0.0000000129968795657     0.0000000191458275399     0.0000000233094855823     0.0000000232224830959     0.0000000163540483419     0.0000000002222524117     -0.0000000272476683939     -0.0000000667691984951     -0.0000001157999440361     -0.0000001663365148286     -0.0000002043012638550     -0.0000002127206586310     -0.0000001807098176849     -0.0000001056107086068     -0.0000000000002673504     0.0000001056101340570     0.0000001807091625551     0.0000002127199850057     0.0000002043007208575     0.0000001663362874976     0.0000001158001930213     0.0000000667699883318     0.0000000272489312455     -0.0000000002207079210     -0.0000000163524937922     -0.0000000232212072475     -0.0000000233087244322     -0.0000000191457025979     -0.0000000129973626964     -0.0000000064227906100     -0.0000000000005373743 
    -0.0000000000002915256     0.0000000005101069989     0.0000000024649815118     0.0000000061924938446     0.0000000104730277618     0.0000000129285812721     0.0000000108121989358     0.0000000017021102872     -0.0000000160027746856     -0.0000000424748194149     -0.0000000754500137623     -0.0000001091237111148     -0.0000001340411744345     -0.0000001392555084490     -0.0000001168816355314     -0.0000000670594217954     -0.0000000000000112253     0.0000000670593419641     0.0000001168814212175     0.0000001392551798856     0.0000001340408648880     0.0000001091236262973     0.0000000754503530354     0.0000000424756985180     0.0000000160041819023     -0.0000000017003181346     -0.0000000108102695839     -0.0000000129268155238     -0.0000000104717061902     -0.0000000061917947040     -0.0000000024649185667     -0.0000000005105161844     -0.0000000000002915256 
    0.0000000000000982369     -0.0000000090697114980     -0.0000000141693457094     -0.0000000134307395616     -0.0000000079194029270     -0.0000000008905170085     0.0000000037850543019     0.0000000029973616868     -0.0000000049116973793     -0.0000000199191314389     -0.0000000400966603961     -0.0000000613160478928     -0.0000000774141369822     -0.0000000815606097686     -0.0000000689487903889     -0.0000000396934826594     0.0000000000003520332     0.0000000396940997092     0.0000000689491903227     0.0000000815607752561     0.0000000774141825221     0.0000000613161812361     0.0000000400971083758     0.0000000199200664168     0.0000000049131876776     -0.0000000029953756451     -0.0000000037827614991     0.0000000008928273328     0.0000000079214130715     0.0000000134322077134     0.0000000141702005557     0.0000000090700879371     0.0000000000000982369 
    0.0000000000005759538     -0.0000000250036081261     -0.0000000413063411061     -0.0000000444074117461     -0.0000000356231148101     -0.0000000205123609305     -0.0000000056539908319     0.0000000040316464398     0.0000000062952939973     0.0000000012544720801     -0.0000000092558275533     -0.0000000220905780380     -0.0000000331128909309     -0.0000000379691790842     -0.0000000335749963605     -0.0000000197689924712     0.0000000000007240749     0.0000000197703292405     0.0000000335760454491     0.0000000379698831937     0.0000000331133340507     0.0000000220909545202     0.0000000092563806204     -0.0000000012535145705     -0.0000000062937742885     -0.0000000040295240908     0.0000000056566042417     0.0000000205152047359     0.0000000356258469116     0.0000000444097327852     0.0000000413081190383     0.0000000250049352319     0.0000000000005759538 
    0.0000000000008792873     -0.0000000557809176249     -0.0000000905271742170     -0.0000000956907032288     -0.0000000781830767950     -0.0000000494246743055     -0.0000000190592415230     0.0000000045430431807     0.0000000180185771554     0.0000000218201457183     0.0000000183072821369     0.0000000104994354695     0.0000000016103784853     -0.0000000052610088552     -0.0000000078202789676     -0.0000000055160849972     0.0000000000010337037     0.0000000055180263922     0.0000000078218868683     0.0000000052621907162     -0.0000000016095743262     -0.0000000104988384888     -0.0000000183066442987     -0.0000000218191950137     -0.0000000180170774755     -0.0000000045408632262     0.0000000190620648688     0.0000000494279174097     0.0000000781863922955     0.0000000956936998970     0.0000000905296184116     0.0000000557828700445     0.0000000000008792873 
    0.0000000000008178396     -0.0000001127762426990     -0.0000001830066471191     -0.0000001917166732073     -0.0000001512963806882     -0.0000000924287432989     -0.0000000384435559068     0.0000000039876662228     0.0000000304936359951     0.0000000424644454994     0.0000000437871439386     0.0000000383690341650     0.0000000294442198270     0.0000000196891232422     0.0000000111519311255     0.0000000047673901036     0.0000000000012346840     -0.0000000047650500139     -0.0000000111499398473     -0.0000000196875978230     -0.0000000294431456096     -0.0000000383682699585     -0.0000000437864501583     -0.0000000424635285475     -0.0000000304922123205     -0.0000000039855457604     0.0000000384463905562     0.0000000924320902783     0.0000001512997615875     0.0000001917196506133     0.0000001830090141199     0.0000001127780836908     0.0000000000008178396 
    0.0000000000004428562     -0.0000002001748341287     -0.0000003269452899976     -0.0000003452322263628     -0.0000002727953145087     -0.0000001627099337553     -0.0000000658886239742     0.0000000016104605965     0.0000000435105712941     0.0000000633490411114     0.0000000678092124007     0.0000000627798059429     0.0000000523080629000     0.0000000391783615292     0.0000000254501775632     0.0000000123524248058     0.0000000000013098755     -0.0000000123499272797     -0.0000000254480150379     -0.0000000391766614522     -0.0000000523068368150     -0.0000000627789436767     -0.0000000678084974104     -0.0000000633481882635     -0.0000000435092922123     -0.0000000016085502673     0.0000000658911933341     0.0000001627128230934     0.0000002727980732067     0.0000003452344926238     0.0000003269469127392     0.0000002001759248547     0.0000000000004428562 
    -0.0000000000000649704     -0.0000003138851117611     -0.0000005162019741753     -0.0000005510917200858     -0.0000004411192263859     -0.0000002649764972302     -0.0000001060112826055     -0.0000000031737652882     0.0000000562987458281     0.0000000838486272329     0.0000000901819045566     0.0000000841487352878     0.0000000712125103807     0.0000000545727460608     0.0000000363817925559     0.0000000180391611539     0.0000000000012595313     -0.0000000180367491619     -0.0000000363796776674     -0.0000000545710514748     -0.0000000712112635072     -0.0000000841478559239     -0.0000000901812126212     -0.0000000838478758681     -0.0000000562976831916     0.0000000031753187387     0.0000001060132283077     0.0000002649784994974     0.0000004411209416180     0.0000005510928942942     0.0000005162025257685     0.0000003138851696426     -0.0000000000000649704 
    -0.0000000000004708032     -0.0000004398360780407     -0.0000007273741080611     -0.0000007839634972626     -0.0000006360321131589     -0.0000003882362808214     -0.0000001577388541292     -0.0000000098600073698     0.0000000677009188027     0.0000001025815163318     0.0000001099359085852     0.0000001021474899785     0.0000000864196105511     0.0000000664994424737     0.0000000446275176740     0.0000000222611400920     0.0000000000010887170     -0.0000000222590485166     -0.0000000446256665018     -0.0000000664979373540     -0.0000000864184839223     -0.0000001021466884068     -0.0000001099352972862     -0.0000001025809077378     -0.0000000677001250144     0.0000000098610836390     0.0000001577400319406     0.0000003882373105145     0.0000006360327725515     0.0000007839636450619     0.0000007273737246541     0.0000004398352890015     -0.0000000000004708032 
    -0.0000000000005964061     -0.0000005560238802313     -0.0000009231527190934     -0.0000010018757309837     -0.0000008213344893806     -0.0000005087380274225     -0.0000002112163236293     -0.0000000179425445467     0.0000000765707452336     0.0000001177515161999     0.0000001256231031906     0.0000001159820994242     0.0000000977211302088     0.0000000751177286126     0.0000000504688574000     0.0000000252175582800     0.0000000000008055803     -0.0000000252160071836     -0.0000000504674754921     -0.0000000751165930270     -0.0000000977202687266     -0.0000001159814806700     -0.0000001256226400484     -0.0000001177510878491     -0.0000000765702350237     0.0000000179431459807     0.0000002112168579030     0.0000005087383362053     0.0000008213344570197     0.0000010018753029128     0.0000009231519115760     0.0000005560227920194     -0.0000000000005964061 
    -0.0000000000004021450     -0.0000006383389254943     -0.0000010622928519065     -0.0000011576493449492     -0.0000009551069112861     -0.0000005972584768999     -0.0000002519519682879     -0.0000000250527016023     0.0000000821252718182     0.0000001276493405246     0.0000001357630789987     0.0000001247477625462     0.0000001047277797521     0.0000000803633613207     0.0000000539786367445     0.0000000269807802855     0.0000000000004297631     -0.0000000269799517035     -0.0000000539778956182     -0.0000000803627483270     -0.0000001047273107347     -0.0000001247474233583     -0.0000001357628276546     -0.0000001276491194627     -0.0000000821250276603     0.0000000250529475191     0.0000002519521289636     0.0000005972584778571     0.0000009551067089528     0.0000011576489284486     0.0000010622922406448     0.0000006383381733634     -0.0000000000004021450 
    -0.0000000000000000000     -0.0000006681150842986     -0.0000011127020690872     -0.0000012142438292830     -0.0000010039387049869     -0.0000006298428318178     -0.0000002672121482861     -0.0000000279151443812     0.0000000840813705490     0.0000001310882349843     0.0000001392741405525     0.0000001277546418526     0.0000001071058720477     0.0000000821275985896     0.0000000551515317905     0.0000000275677718907     0.0000000000000000000     -0.0000000275677718907     -0.0000000551515317905     -0.0000000821275985896     -0.0000001071058720477     -0.0000001277546418526     -0.0000001392741405525     -0.0000001310882349843     -0.0000000840813705490     0.0000000279151443812     0.0000002672121482861     0.0000006298428318178     0.0000010039387049869     0.0000012142438292830     0.0000011127020690872     0.0000006681150842986     -0.0000000000000000000 
    -0.0000000000000000000     -0.0000005386585581926     -0.0000009030162839876     -0.0000010003050890067     -0.0000008549129738641     -0.0000005806301060105     -0.0000003100899694083     -0.0000001240570579586     -0.0000000147458628233     0.0000000470829839914     0.0000000751777156153     0.0000000820047044013     0.0000000757843445251     0.0000000615281248024     0.0000000426646016228     0.0000000216675391253     0.0000000000000000000     -0.0000000216675391253     -0.0000000426646016228     -0.0000000615281248024     -0.0000000757843445251     -0.0000000820047044013     -0.0000000751777156153     -0.0000000470829839914     0.0000000147458628233     0.0000001240570579586     0.0000003100899694083     0.0000005806301060105     0.0000008549129738641     0.0000010003050890067     0.0000009030162839876     0.0000005386585581926     -0.0000000000000000000 
    0.0000000000000345131     -0.0000005138513982412     -0.0000008608962186875     -0.0000009526727248766     -0.0000008131370481341     -0.0000005516804196402     -0.0000002950058451741     -0.0000001190310675208     -0.0000000137437022800     0.0000000461198536488     0.0000000734757502814     0.0000000801928565799     0.0000000741528800591     0.0000000602177353832     0.0000000417543901756     0.0000000212024356293     -0.0000000000003432985     -0.0000000212030880464     -0.0000000417549456561     -0.0000000602181478581     -0.0000000741531300054     -0.0000000801929568359     -0.0000000734757443677     -0.0000000461198051041     0.0000000137437266953     0.0000001190310137719     0.0000002950057172900     0.0000005516802668199     0.0000008131369151155     0.0000009526726446173     0.0000008608962063580     0.0000005138514441334     0.0000000000000345131 
    -0.0000000000000220118     -0.0000004455304167222     -0.0000007450544394612     -0.0000008220169448282     -0.0000006990734939871     -0.0000004732761034645     -0.0000002547578409635     -0.0000001054678964321     -0.0000000110899477961     0.0000000432529774680     0.0000000684861088605     0.0000000748508261342     0.0000000693044014217     0.0000000562966845630     0.0000000390175030349     0.0000000198001718282     -0.0000000000006340071     -0.0000000198013732834     -0.0000000390185161719     -0.0000000562974211430     -0.0000000693048259039     -0.0000000748509668016     -0.0000000684860548467     -0.0000000432528587151     0.0000000110899935301     0.0000001054677578024     0.0000002547574974130     0.0000004732756583210     0.0000006990730555504     0.0000008220165990249     0.0000007450542288941     0.0000004455303252245     -0.0000000000000220118 
    -0.0000000000002013202     -0.0000003498256695323     -0.0000005832666693979     -0.0000006405810655539     -0.0000005422515994072     -0.0000003673486453877     -0.0000002020701276217     -0.0000000863694574768     -0.0000000076356619119     0.0000000385948598332     0.0000000605453800807     0.0000000662325730700     0.0000000613465148117     0.0000000497636201286     0.0000000344062877141     0.0000000174213562372     -0.0000000000008359744     -0.0000000174229323974     -0.0000000344075941992     -0.0000000497645343291     -0.0000000613469926269     -0.0000000662326633473     -0.0000000605452194635     -0.0000000385946445080     0.0000000076357237227     0.0000000863691990617     0.0000002020694796544     0.0000003673477480298     0.0000005422506464934     0.0000006405802203636     0.0000005832660180170     0.0000003498251956556     -0.0000000000002013202 
    -0.0000000000004474972     -0.0000002473307132624     -0.0000004108869243809     -0.0000004491571129010     -0.0000003796030881968     -0.0000002607004818803     -0.0000001513980167578     -0.0000000653977502958     -0.0000000042778534592     0.0000000324101672376     0.0000000501419697759     0.0000000546545674571     0.0000000503450614004     0.0000000405025903725     0.0000000277430573050     0.0000000139419713531     -0.0000000000009307770     -0.0000000139437120916     -0.0000000277444608112     -0.0000000405035114104     -0.0000000503454590121     -0.0000000546545182583     -0.0000000501416568526     -0.0000000324098433389     0.0000000042779246938     0.0000000653973630926     0.0000001513970801792     0.0000002606991026695     0.0000003796015514148     0.0000004491556701440     0.0000004108857146268     0.0000002473297274956     -0.0000000000004474972 
    -0.0000000000006365912     -0.0000001565485103306     -0.0000002594727246251     -0.0000002836756564834     -0.0000002428311324992     -0.0000001751288340653     -0.0000001061613823136     -0.0000000455000159983     -0.0000000015978245714     0.0000000250716463422     0.0000000377434420455     0.0000000402935454907     0.0000000361125239906     0.0000000280739372520     0.0000000185436333844     0.0000000090505384852     -0.0000000000009063587     -0.0000000090522110326     -0.0000000185449196402     -0.0000000280746848479     -0.0000000361127102783     -0.0000000402932830756     -0.0000000377429551471     -0.0000000250712233693     0.0000000015978963453     0.0000000454995245423     0.0000001061602540345     0.0000001751271564752     0.0000002428291874824     0.0000002836737740220     0.0000002594710933576     0.0000001565471330396     -0.0000000000006365912 
    -0.0000000000006362644     -0.0000000890254940480     -0.0000001483698179916     -0.0000001653575143747     -0.0000001489994993699     -0.0000001119122345211     -0.0000000676214661415     -0.0000000282588652902     0.0000000002160725439     0.0000000168888084840     0.0000000235365953760     0.0000000228855858019     0.0000000178754168018     0.0000000113746502852     0.0000000057273227715     0.0000000020784786911     -0.0000000000007498248     -0.0000000020798269675     -0.0000000057282608983     -0.0000000113750367924     -0.0000000178752632435     -0.0000000228850478548     -0.0000000235359294308     -0.0000000168883107798     -0.0000000002160124762     0.0000000282583119227     0.0000000676202715620     0.0000001119105347367     0.0000001489975469413     0.0000001653556006450     0.0000001483681625048     0.0000000890241094642     -0.0000000000006362644 
    -0.0000000000003721213     -0.0000000477323659947     -0.0000000815636763432     -0.0000000937228163060     -0.0000000850455163839     -0.0000000629084536230     -0.0000000367096424305     -0.0000000139763971340     0.0000000012236574359     0.0000000079125082855     0.0000000071726084494     0.0000000013960813400     -0.0000000061298090160     -0.0000000117977296294     -0.0000000127648911361     -0.0000000082255217734     -0.0000000000004576379     0.0000000082247578915     0.0000000127645289662     0.0000000117978820873     0.0000000061304184418     -0.0000000013952161993     -0.0000000071717647701     -0.0000000079119628457     -0.0000000012236227126     0.0000000139758212653     0.0000000367085001494     0.0000000629069323728     0.0000000850438935063     0.0000000937213575043     0.0000000815625293022     0.0000000477315058217     -0.0000000000003721213 
    0.0000000000000585869     -0.0000000238965473062     -0.0000000403093070514     -0.0000000451243540880     -0.0000000389868206863     -0.0000000262128733384     -0.0000000123719370727     -0.0000000021673843319     0.0000000015422419043     -0.0000000021668134797     -0.0000000123709259861     -0.0000000262116591963     -0.0000000389856882871     -0.0000000451235446144     -0.0000000403089272747     -0.0000000238965259228     -0.0000000000000585869     0.0000000238965473062     0.0000000403093070514     0.0000000451243540880     0.0000000389868206863     0.0000000262128733384     0.0000000123719370727     0.0000000021673843319     -0.0000000015422419043     0.0000000021668134797     0.0000000123709259861     0.0000000262116591963     0.0000000389856882871     0.0000000451235446144     0.0000000403089272747     0.0000000238965259228     0.0000000000000585869 
    0.0000000000004576379     -0.0000000082247578915     -0.0000000127645289662     -0.0000000117978820873     -0.0000000061304184418     0.0000000013952161993     0.0000000071717647701     0.0000000079119628457     0.0000000012236227126     -0.0000000139758212653     -0.0000000367085001494     -0.0000000629069323728     -0.0000000850438935063     -0.0000000937213575043     -0.0000000815625293022     -0.0000000477315058217     0.0000000000003721213     0.0000000477323659947     0.0000000815636763432     0.0000000937228163060     0.0000000850455163839     0.0000000629084536230     0.0000000367096424305     0.0000000139763971340     -0.0000000012236574359     -0.0000000079125082855     -0.0000000071726084494     -0.0000000013960813400     0.0000000061298090160     0.0000000117977296294     0.0000000127648911361     0.0000000082255217734     0.0000000000004576379 
    0.0000000000007498248     0.0000000020798269675     0.0000000057282608983     0.0000000113750367924     0.0000000178752632435     0.0000000228850478548     0.0000000235359294308     0.0000000168883107798     0.0000000002160124762     -0.0000000282583119227     -0.0000000676202715620     -0.0000001119105347367     -0.0000001489975469413     -0.0000001653556006450     -0.0000001483681625048     -0.0000000890241094642     0.0000000000006362644     0.0000000890254940480     0.0000001483698179916     0.0000001653575143747     0.0000001489994993699     0.0000001119122345211     0.0000000676214661415     0.0000000282588652902     -0.0000000002160725439     -0.0000000168888084840     -0.0000000235365953760     -0.0000000228855858019     -0.0000000178754168018     -0.0000000113746502852     -0.0000000057273227715     -0.0000000020784786911     0.0000000000007498248 
    0.0000000000009063587     0.0000000090522110326     0.0000000185449196402     0.0000000280746848479     0.0000000361127102783     0.0000000402932830756     0.0000000377429551471     0.0000000250712233693     -0.0000000015978963453     -0.0000000454995245423     -0.0000001061602540345     -0.0000001751271564752     -0.0000002428291874824     -0.0000002836737740220     -0.0000002594710933576     -0.0000001565471330396     0.0000000000006365912     0.0000001565485103306     0.0000002594727246251     0.0000002836756564834     0.0000002428311324992     0.0000001751288340653     0.0000001061613823136     0.0000000455000159983     0.0000000015978245714     -0.0000000250716463422     -0.0000000377434420455     -0.0000000402935454907     -0.0000000361125239906     -0.0000000280739372520     -0.0000000185436333844     -0.0000000090505384852     0.0000000000009063587 
    0.0000000000009307770     0.0000000139437120916     0.0000000277444608112     0.0000000405035114104     0.0000000503454590121     0.0000000546545182583     0.0000000501416568526     0.0000000324098433389     -0.0000000042779246938     -0.0000000653973630926     -0.0000001513970801792     -0.0000002606991026695     -0.0000003796015514148     -0.0000004491556701440     -0.0000004108857146268     -0.0000002473297274956     0.0000000000004474972     0.0000002473307132624     0.0000004108869243809     0.0000004491571129010     0.0000003796030881968     0.0000002607004818803     0.0000001513980167578     0.0000000653977502958     0.0000000042778534592     -0.0000000324101672376     -0.0000000501419697759     -0.0000000546545674571     -0.0000000503450614004     -0.0000000405025903725     -0.0000000277430573050     -0.0000000139419713531     0.0000000000009307770 
    0.0000000000008359744     0.0000000174229323974     0.0000000344075941992     0.0000000497645343291     0.0000000613469926269     0.0000000662326633473     0.0000000605452194635     0.0000000385946445080     -0.0000000076357237227     -0.0000000863691990617     -0.0000002020694796544     -0.0000003673477480298     -0.0000005422506464934     -0.0000006405802203636     -0.0000005832660180170     -0.0000003498251956556     0.0000000000002013202     0.0000003498256695323     0.0000005832666693979     0.0000006405810655539     0.0000005422515994072     0.0000003673486453877     0.0000002020701276217     0.0000000863694574768     0.0000000076356619119     -0.0000000385948598332     -0.0000000605453800807     -0.0000000662325730700     -0.0000000613465148117     -0.0000000497636201286     -0.0000000344062877141     -0.0000000174213562372     0.0000000000008359744 
    0.0000000000006340071     0.0000000198013732834     0.0000000390185161719     0.0000000562974211430     0.0000000693048259039     0.0000000748509668016     0.0000000684860548467     0.0000000432528587151     -0.0000000110899935301     -0.0000001054677578024     -0.0000002547574974130     -0.0000004732756583210     -0.0000006990730555504     -0.0000008220165990249     -0.0000007450542288941     -0.0000004455303252245     0.0000000000000220118     0.0000004455304167222     0.0000007450544394612     0.0000008220169448282     0.0000006990734939871     0.0000004732761034645     0.0000002547578409635     0.0000001054678964321     0.0000000110899477961     -0.0000000432529774680     -0.0000000684861088605     -0.0000000748508261342     -0.0000000693044014217     -0.0000000562966845630     -0.0000000390175030349     -0.0000000198001718282     0.0000000000006340071 
    0.0000000000003432985     0.0000000212030880464     0.0000000417549456561     0.0000000602181478581     0.0000000741531300054     0.0000000801929568359     0.0000000734757443677     0.0000000461198051041     -0.0000000137437266953     -0.0000001190310137719     -0.0000002950057172900     -0.0000005516802668199     -0.0000008131369151155     -0.0000009526726446173     -0.0000008608962063580     -0.0000005138514441334     -0.0000000000000345131     0.0000005138513982412     0.0000008608962186875     0.0000009526727248766     0.0000008131370481341     0.0000005516804196402     0.0000002950058451741     0.0000001190310675208     0.0000000137437022800     -0.0000000461198536488     -0.0000000734757502814     -0.0000000801928565799     -0.0000000741528800591     -0.0000000602177353832     -0.0000000417543901756     -0.0000000212024356293     0.0000000000003432985 
    -0.0000000000000000000     0.0000000216675391253     0.0000000426646016228     0.0000000615281248024     0.0000000757843445251     0.0000000820047044013     0.0000000751777156153     0.0000000470829839914     -0.0000000147458628233     -0.0000001240570579586     -0.0000003100899694083     -0.0000005806301060105     -0.0000008549129738641     -0.0000010003050890067     -0.0000009030162839876     -0.0000005386585581926     0.0000000000000000000     0.0000005386585581926     0.0000009030162839876     0.0000010003050890067     0.0000008549129738641     0.0000005806301060105     0.0000003100899694083     0.0000001240570579586     0.0000000147458628233     -0.0000000470829839914     -0.0000000751777156153     -0.0000000820047044013     -0.0000000757843445251     -0.0000000615281248024     -0.0000000426646016228     -0.0000000216675391253     -0.0000000000000000000 
    -0.0000000000003432985     0.0000000212024356293     0.0000000417543901756     0.0000000602177353832     0.0000000741528800591     0.0000000801928565799     0.0000000734757502814     0.0000000461198536488     -0.0000000137437022800     -0.0000001190310675208     -0.0000002950058451741     -0.0000005516804196402     -0.0000008131370481341     -0.0000009526727248766     -0.0000008608962186875     -0.0000005138513982412     0.0000000000000345131     0.0000005138514441334     0.0000008608962063580     0.0000009526726446173     0.0000008131369151155     0.0000005516802668199     0.0000002950057172900     0.0000001190310137719     0.0000000137437266953     -0.0000000461198051041     -0.0000000734757443677     -0.0000000801929568359     -0.0000000741531300054     -0.0000000602181478581     -0.0000000417549456561     -0.0000000212030880464     -0.0000000000003432985 
    -0.0000000000006340071     0.0000000198001718282     0.0000000390175030349     0.0000000562966845630     0.0000000693044014217     0.0000000748508261342     0.0000000684861088605     0.0000000432529774680     -0.0000000110899477961     -0.0000001054678964321     -0.0000002547578409635     -0.0000004732761034645     -0.0000006990734939871     -0.0000008220169448282     -0.0000007450544394612     -0.0000004455304167222     -0.0000000000000220118     0.0000004455303252245     0.0000007450542288941     0.0000008220165990249     0.0000006990730555504     0.0000004732756583210     0.0000002547574974130     0.0000001054677578024     0.0000000110899935301     -0.0000000432528587151     -0.0000000684860548467     -0.0000000748509668016     -0.0000000693048259039     -0.0000000562974211430     -0.0000000390185161719     -0.0000000198013732834     -0.0000000000006340071 
    -0.0000000000008359744     0.0000000174213562372     0.0000000344062877141     0.0000000497636201286     0.0000000613465148117     0.0000000662325730700     0.0000000605453800807     0.0000000385948598332     -0.0000000076356619119     -0.0000000863694574768     -0.0000002020701276217     -0.0000003673486453877     -0.0000005422515994072     -0.0000006405810655539     -0.0000005832666693979     -0.0000003498256695323     -0.0000000000002013202     0.0000003498251956556     0.0000005832660180170     0.0000006405802203636     0.0000005422506464934     0.0000003673477480298     0.0000002020694796544     0.0000000863691990617     0.0000000076357237227     -0.0000000385946445080     -0.0000000605452194635     -0.0000000662326633473     -0.0000000613469926269     -0.0000000497645343291     -0.0000000344075941992     -0.0000000174229323974     -0.0000000000008359744 
    -0.0000000000009307770     0.0000000139419713531     0.0000000277430573050     0.0000000405025903725     0.0000000503450614004     0.0000000546545674571     0.0000000501419697759     0.0000000324101672376     -0.0000000042778534592     -0.0000000653977502958     -0.0000001513980167578     -0.0000002607004818803     -0.0000003796030881968     -0.0000004491571129010     -0.0000004108869243809     -0.0000002473307132624     -0.0000000000004474972     0.0000002473297274956     0.0000004108857146268     0.0000004491556701440     0.0000003796015514148     0.0000002606991026695     0.0000001513970801792     0.0000000653973630926     0.0000000042779246938     -0.0000000324098433389     -0.0000000501416568526     -0.0000000546545182583     -0.0000000503454590121     -0.0000000405035114104     -0.0000000277444608112     -0.0000000139437120916     -0.0000000000009307770 
    -0.0000000000009063587     0.0000000090505384852     0.0000000185436333844     0.0000000280739372520     0.0000000361125239906     0.0000000402935454907     0.0000000377434420455     0.0000000250716463422     -0.0000000015978245714     -0.0000000455000159983     -0.0000001061613823136     -0.0000001751288340653     -0.0000002428311324992     -0.0000002836756564834     -0.0000002594727246251     -0.0000001565485103306     -0.0000000000006365912     0.0000001565471330396     0.0000002594710933576     0.0000002836737740220     0.0000002428291874824     0.0000001751271564752     0.0000001061602540345     0.0000000454995245423     0.0000000015978963453     -0.0000000250712233693     -0.0000000377429551471     -0.0000000402932830756     -0.0000000361127102783     -0.0000000280746848479     -0.0000000185449196402     -0.0000000090522110326     -0.0000000000009063587 
    -0.0000000000007498248     0.0000000020784786911     0.0000000057273227715     0.0000000113746502852     0.0000000178754168018     0.0000000228855858019     0.0000000235365953760     0.0000000168888084840     0.0000000002160725439     -0.0000000282588652902     -0.0000000676214661415     -0.0000001119122345211     -0.0000001489994993699     -0.0000001653575143747     -0.0000001483698179916     -0.0000000890254940480     -0.0000000000006362644     0.0000000890241094642     0.0000001483681625048     0.0000001653556006450     0.0000001489975469413     0.0000001119105347367     0.0000000676202715620     0.0000000282583119227     -0.0000000002160124762     -0.0000000168883107798     -0.0000000235359294308     -0.0000000228850478548     -0.0000000178752632435     -0.0000000113750367924     -0.0000000057282608983     -0.0000000020798269675     -0.0000000000007498248 
    -0.0000000000004576379     -0.0000000082255217734     -0.0000000127648911361     -0.0000000117977296294     -0.0000000061298090160     0.0000000013960813400     0.0000000071726084494     0.0000000079125082855     0.0000000012236574359     -0.0000000139763971340     -0.0000000367096424305     -0.0000000629084536230     -0.0000000850455163839     -0.0000000937228163060     -0.0000000815636763432     -0.0000000477323659947     -0.0000000000003721213     0.0000000477315058217     0.0000000815625293022     0.0000000937213575043     0.0000000850438935063     0.0000000629069323728     0.0000000367085001494     0.0000000139758212653     -0.0000000012236227126     -0.0000000079119628457     -0.0000000071717647701     -0.0000000013952161993     0.0000000061304184418     0.0000000117978820873     0.0000000127645289662     0.0000000082247578915     -0.0000000000004576379 
    -0.0000000000000585869     -0.0000000238965259228     -0.0000000403089272747     -0.0000000451235446144     -0.0000000389856882871     -0.0000000262116591963     -0.0000000123709259861     -0.0000000021668134797     0.0000000015422419043     -0.0000000021673843319     -0.0000000123719370727     -0.0000000262128733384     -0.0000000389868206863     -0.0000000451243540880     -0.0000000403093070514     -0.0000000238965473062     0.0000000000000585869     0.0000000238965259228     0.0000000403089272747     0.0000000451235446144     0.0000000389856882871     0.0000000262116591963     0.0000000123709259861     0.0000000021668134797     -0.0000000015422419043     0.0000000021673843319     0.0000000123719370727     0.0000000262128733384     0.0000000389868206863     0.0000000451243540880     0.0000000403093070514     0.0000000238965473062     -0.0000000000000585869 
    0.0000000000003721213     -0.0000000477315058217     -0.0000000815625293022     -0.0000000937213575043     -0.0000000850438935063     -0.0000000629069323728     -0.0000000367085001494     -0.0000000139758212653     0.0000000012236227126     0.0000000079119628457     0.0000000071717647701     0.0000000013952161993     -0.0000000061304184418     -0.0000000117978820873     -0.0000000127645289662     -0.0000000082247578915     0.0000000000004576379     0.0000000082255217734     0.0000000127648911361     0.0000000117977296294     0.0000000061298090160     -0.0000000013960813400     -0.0000000071726084494     -0.0000000079125082855     -0.0000000012236574359     0.0000000139763971340     0.0000000367096424305     0.0000000629084536230     0.0000000850455163839     0.0000000937228163060     0.0000000815636763432     0.0000000477323659947     0.0000000000003721213 
    0.0000000000006362644     -0.0000000890241094642     -0.0000001483681625048     -0.0000001653556006450     -0.0000001489975469413     -0.0000001119105347367     -0.0000000676202715620     -0.0000000282583119227     0.0000000002160124762     0.0000000168883107798     0.0000000235359294308     0.0000000228850478548     0.0000000178752632435     0.0000000113750367924     0.0000000057282608983     0.0000000020798269675     0.0000000000007498248     -0.0000000020784786911     -0.0000000057273227715     -0.0000000113746502852     -0.0000000178754168018     -0.0000000228855858019     -0.0000000235365953760     -0.0000000168888084840     -0.0000000002160725439     0.0000000282588652902     0.0000000676214661415     0.0000001119122345211     0.0000001489994993699     0.0000001653575143747     0.0000001483698179916     0.0000000890254940480     0.0000000000006362644 
    0.0000000000006365912     -0.0000001565471330396     -0.0000002594710933576     -0.0000002836737740220     -0.0000002428291874824     -0.0000001751271564752     -0.0000001061602540345     -0.0000000454995245423     -0.0000000015978963453     0.0000000250712233693     0.0000000377429551471     0.0000000402932830756     0.0000000361127102783     0.0000000280746848479     0.0000000185449196402     0.0000000090522110326     0.0000000000009063587     -0.0000000090505384852     -0.0000000185436333844     -0.0000000280739372520     -0.0000000361125239906     -0.0000000402935454907     -0.0000000377434420455     -0.0000000250716463422     0.0000000015978245714     0.0000000455000159983     0.0000001061613823136     0.0000001751288340653     0.0000002428311324992     0.0000002836756564834     0.0000002594727246251     0.0000001565485103306     0.0000000000006365912 
    0.0000000000004474972     -0.0000002473297274956     -0.0000004108857146268     -0.0000004491556701440     -0.0000003796015514148     -0.0000002606991026695     -0.0000001513970801792     -0.0000000653973630926     -0.0000000042779246938     0.0000000324098433389     0.0000000501416568526     0.0000000546545182583     0.0000000503454590121     0.0000000405035114104     0.0000000277444608112     0.0000000139437120916     0.0000000000009307770     -0.0000000139419713531     -0.0000000277430573050     -0.0000000405025903725     -0.0000000503450614004     -0.0000000546545674571     -0.0000000501419697759     -0.0000000324101672376     0.0000000042778534592     0.0000000653977502958     0.0000001513980167578     0.0000002607004818803     0.0000003796030881968     0.0000004491571129010     0.0000004108869243809     0.0000002473307132624     0.0000000000004474972 
    0.0000000000002013202     -0.0000003498251956556     -0.0000005832660180170     -0.0000006405802203636     -0.0000005422506464934     -0.0000003673477480298     -0.0000002020694796544     -0.0000000863691990617     -0.0000000076357237227     0.0000000385946445080     0.0000000605452194635     0.0000000662326633473     0.0000000613469926269     0.0000000497645343291     0.0000000344075941992     0.0000000174229323974     0.0000000000008359744     -0.0000000174213562372     -0.0000000344062877141     -0.0000000497636201286     -0.0000000613465148117     -0.0000000662325730700     -0.0000000605453800807     -0.0000000385948598332     0.0000000076356619119     0.0000000863694574768     0.0000002020701276217     0.0000003673486453877     0.0000005422515994072     0.0000006405810655539     0.0000005832666693979     0.0000003498256695323     0.0000000000002013202 
    0.0000000000000220118     -0.0000004455303252245     -0.0000007450542288941     -0.0000008220165990249     -0.0000006990730555504     -0.0000004732756583210     -0.0000002547574974130     -0.0000001054677578024     -0.0000000110899935301     0.0000000432528587151     0.0000000684860548467     0.0000000748509668016     0.0000000693048259039     0.0000000562974211430     0.0000000390185161719     0.0000000198013732834     0.0000000000006340071     -0.0000000198001718282     -0.0000000390175030349     -0.0000000562966845630     -0.0000000693044014217     -0.0000000748508261342     -0.0000000684861088605     -0.0000000432529774680     0.0000000110899477961     0.0000001054678964321     0.0000002547578409635     0.0000004732761034645     0.0000006990734939871     0.0000008220169448282     0.0000007450544394612     0.0000004455304167222     0.0000000000000220118 
    -0.0000000000000345131     -0.0000005138514441334     -0.0000008608962063580     -0.0000009526726446173     -0.0000008131369151155     -0.0000005516802668199     -0.0000002950057172900     -0.0000001190310137719     -0.0000000137437266953     0.0000000461198051041     0.0000000734757443677     0.0000000801929568359     0.0000000741531300054     0.0000000602181478581     0.0000000417549456561     0.0000000212030880464     0.0000000000003432985     -0.0000000212024356293     -0.0000000417543901756     -0.0000000602177353832     -0.0000000741528800591     -0.0000000801928565799     -0.0000000734757502814     -0.0000000461198536488     0.0000000137437022800     0.0000001190310675208     0.0000002950058451741     0.0000005516804196402     0.0000008131370481341     0.0000009526727248766     0.0000008608962186875     0.0000005138513982412     -0.0000000000000345131 
    -0.0000000000000000000     -0.0000005386585581926     -0.0000009030162839876     -0.0000010003050890067     -0.0000008549129738641     -0.0000005806301060105     -0.0000003100899694083     -0.0000001240570579586     -0.0000000147458628233     0.0000000470829839914     0.0000000751777156153     0.0000000820047044013     0.0000000757843445251     0.0000000615281248024     0.0000000426646016228     0.0000000216675391253     0.0000000000000000000     -0.0000000216675391253     -0.0000000426646016228     -0.0000000615281248024     -0.0000000757843445251     -0.0000000820047044013     -0.0000000751777156153     -0.0000000470829839914     0.0000000147458628233     0.0000001240570579586     0.0000003100899694083     0.0000005806301060105     0.0000008549129738641     0.0000010003050890067     0.0000009030162839876     0.0000005386585581926     -0.0000000000000000000 
    -0.0000000000000000000     -0.0000003597626249491     -0.0000006037301691080     -0.0000006727241863982     -0.0000005877331526016     -0.0000004283769754526     -0.0000002801943415380     -0.0000001587474658860     -0.0000000669974761501     -0.0000000063928081765     0.0000000288207454258     0.0000000453462648305     0.0000000485333018107     0.0000000425073858122     0.0000000307135514573     0.0000000159240447770     0.0000000000000000000     -0.0000000159240447770     -0.0000000307135514573     -0.0000000425073858122     -0.0000000485333018107     -0.0000000453462648305     -0.0000000288207454258     0.0000000063928081765     0.0000000669974761501     0.0000001587474658860     0.0000002801943415380     0.0000004283769754526     0.0000005877331526016     0.0000006727241863982     0.0000006037301691080     0.0000003597626249491     -0.0000000000000000000 
    -0.0000000000000893574     -0.0000003424163602246     -0.0000005744833216935     -0.0000006400903554960     -0.0000005597999785143     -0.0000004099278273313     -0.0000002704953634275     -0.0000001534760248540     -0.0000000647648786738     -0.0000000059549724798     0.0000000283269904662     0.0000000444484498042     0.0000000475482045422     0.0000000416338890803     0.0000000300758978960     0.0000000155908601658     -0.0000000000002647874     -0.0000000155913529213     -0.0000000300762861188     -0.0000000416341228117     -0.0000000475482621374     -0.0000000444483438004     -0.0000000283267651763     0.0000000059552521014     0.0000000647651430931     0.0000001534762150846     0.0000002704954406528     0.0000004099277852968     0.0000005597998545788     0.0000006400901880073     0.0000005744831399183     0.0000003424161792877     -0.0000000000000893574 
    -0.0000000000001922493     -0.0000002950409842785     -0.0000004947667483413     -0.0000005515050698789     -0.0000004845595610490     -0.0000003609931733365     -0.0000002434556933007     -0.0000001387177057011     -0.0000000585053796684     -0.0000000047722432117     0.0000000268329381467     0.0000000417683803117     0.0000000445992226396     0.0000000390078948460     0.0000000281519662471     0.0000000145833388902     -0.0000000000004802909     -0.0000000145842274975     -0.0000000281526508452     -0.0000000390082789190     -0.0000000445992659381     -0.0000000417681102272     -0.0000000268324450127     0.0000000047728278914     0.0000000585059154330     0.0000001387180750999     0.0000002434558240169     0.0000003609930515901     0.0000004845592646283     0.0000005515046882767     0.0000004947663467137     0.0000002950405922853     -0.0000000000001922493 
    -0.0000000000002942797     -0.0000002298690805069     -0.0000003856065067950     -0.0000004313222987127     -0.0000003842689376209     -0.0000002979420679733     -0.0000002044135804383     -0.0000001171988641573     -0.0000000493298502773     -0.0000000031548749482     0.0000000243255072168     0.0000000373432252164     0.0000000396844933747     0.0000000345809682972     0.0000000248758691787     0.0000000128558800697     -0.0000000000006117170     -0.0000000128569991558     -0.0000000248766937304     -0.0000000345813625392     -0.0000000396844058904     -0.0000000373427038262     -0.0000000243246904317     0.0000000031557904974     0.0000000493306576163     0.0000001171993950004     0.0000002044137412199     0.0000002979418517414     0.0000003842684431321     0.0000004313216807337     0.0000003856058737013     0.0000002298684755025     -0.0000000000002942797 
    -0.0000000000003435051     -0.0000001622610333273     -0.0000002733288919117     -0.0000003098352778530     -0.0000002862247645757     -0.0000002311451677912     -0.0000001599606262047     -0.0000000922601479391     -0.0000000385534359883     -0.0000000014220748943     0.0000000208249602913     0.0000000311979980329     0.0000000327124645368     0.0000000281537570564     0.0000000200227435369     0.0000000102611388982     -0.0000000000006374513     -0.0000000102622806195     -0.0000000200235124038     -0.0000000281539899674     -0.0000000327121122459     -0.0000000311971385510     -0.0000000208237813680     0.0000000014233210802     0.0000000385544938768     0.0000000922608198882     0.0000001599608178308     0.0000002311449015646     0.0000002862241543189     0.0000003098345125845     0.0000002733281244842     0.0000001622603186431     -0.0000000000003435051 
    -0.0000000000002673504     -0.0000001056107086068     -0.0000001807098176849     -0.0000002127206586310     -0.0000002043012638550     -0.0000001663365148286     -0.0000001157999440361     -0.0000000667691984951     -0.0000000272476683939     0.0000000002222524117     0.0000000163540483419     0.0000000232224830959     0.0000000233094855823     0.0000000191458275399     0.0000000129968795657     0.0000000064218730593     -0.0000000000005373743     -0.0000000064227906100     -0.0000000129973626964     -0.0000000191457025979     -0.0000000233087244322     -0.0000000232212072475     -0.0000000163524937922     -0.0000000002207079210     0.0000000272489312455     0.0000000667699883318     0.0000001158001930213     0.0000001663362874976     0.0000002043007208575     0.0000002127199850057     0.0000001807091625551     0.0000001056101340570     -0.0000000000002673504 
    -0.0000000000000112253     -0.0000000670594217954     -0.0000001168816355314     -0.0000001392555084490     -0.0000001340411744345     -0.0000001091237111148     -0.0000000754500137623     -0.0000000424748194149     -0.0000000160027746856     0.0000000017021102872     0.0000000108121989358     0.0000000129285812721     0.0000000104730277618     0.0000000061924938446     0.0000000024649815118     0.0000000005101069989     -0.0000000000002915256     -0.0000000005105161844     -0.0000000024649185667     -0.0000000061917947040     -0.0000000104717061902     -0.0000000129268155238     -0.0000000108102695839     -0.0000000017003181346     0.0000000160041819023     0.0000000424756985180     0.0000000754503530354     0.0000001091236262973     0.0000001340408648880     0.0000001392551798856     0.0000001168814212175     0.0000000670593419641     -0.0000000000000112253 
    0.0000000000003520332     -0.0000000396934826594     -0.0000000689487903889     -0.0000000815606097686     -0.0000000774141369822     -0.0000000613160478928     -0.0000000400966603961     -0.0000000199191314389     -0.0000000049116973793     0.0000000029973616868     0.0000000037850543019     -0.0000000008905170085     -0.0000000079194029270     -0.0000000134307395616     -0.0000000141693457094     -0.0000000090697114980     0.0000000000000982369     0.0000000090700879371     0.0000000141702005557     0.0000000134322077134     0.0000000079214130715     0.0000000008928273328     -0.0000000037827614991     -0.0000000029953756451     0.0000000049131876776     0.0000000199200664168     0.0000000400971083758     0.0000000613161812361     0.0000000774141825221     0.0000000815607752561     0.0000000689491903227     0.0000000396940997092     0.0000000000003520332 
    0.0000000000007240749     -0.0000000197689924712     -0.0000000335749963605     -0.0000000379691790842     -0.0000000331128909309     -0.0000000220905780380     -0.0000000092558275533     0.0000000012544720801     0.0000000062952939973     0.0000000040316464398     -0.0000000056539908319     -0.0000000205123609305     -0.0000000356231148101     -0.0000000444074117461     -0.0000000413063411061     -0.0000000250036081261     0.0000000000005759538     0.0000000250049352319     0.0000000413081190383     0.0000000444097327852     0.0000000356258469116     0.0000000205152047359     0.0000000056566042417     -0.0000000040295240908     -0.0000000062937742885     -0.0000000012535145705     0.0000000092563806204     0.0000000220909545202     0.0000000331133340507     0.0000000379698831937     0.0000000335760454491     0.0000000197703292405     0.0000000000007240749 
    0.0000000000010337037     -0.0000000055160849972     -0.0000000078202789676     -0.0000000052610088552     0.0000000016103784853     0.0000000104994354695     0.0000000183072821369     0.0000000218201457183     0.0000000180185771554     0.0000000045430431807     -0.0000000190592415230     -0.0000000494246743055     -0.0000000781830767950     -0.0000000956907032288     -0.0000000905271742170     -0.0000000557809176249     0.0000000000008792873     0.0000000557828700445     0.0000000905296184116     0.0000000956936998970     0.0000000781863922955     0.0000000494279174097     0.0000000190620648688     -0.0000000045408632262     -0.0000000180170774755     -0.0000000218191950137     -0.0000000183066442987     -0.0000000104988384888     -0.0000000016095743262     0.0000000052621907162     0.0000000078218868683     0.0000000055180263922     0.0000000000010337037 
    0.0000000000012346840     0.0000000047673901036     0.0000000111519311255     0.0000000196891232422     0.0000000294442198270     0.0000000383690341650     0.0000000437871439386     0.0000000424644454994     0.0000000304936359951     0.0000000039876662228     -0.0000000384435559068     -0.0000000924287432989     -0.0000001512963806882     -0.0000001917166732073     -0.0000001830066471191     -0.0000001127762426990     0.0000000000008178396     0.0000001127780836908     0.0000001830090141199     0.0000001917196506133     0.0000001512997615875     0.0000000924320902783     0.0000000384463905562     -0.0000000039855457604     -0.0000000304922123205     -0.0000000424635285475     -0.0000000437864501583     -0.0000000383682699585     -0.0000000294431456096     -0.0000000196875978230     -0.0000000111499398473     -0.0000000047650500139     0.0000000000012346840 
    0.0000000000013098755     0.0000000123524248058     0.0000000254501775632     0.0000000391783615292     0.0000000523080629000     0.0000000627798059429     0.0000000678092124007     0.0000000633490411114     0.0000000435105712941     0.0000000016104605965     -0.0000000658886239742     -0.0000001627099337553     -0.0000002727953145087     -0.0000003452322263628     -0.0000003269452899976     -0.0000002001748341287     0.0000000000004428562     0.0000002001759248547     0.0000003269469127392     0.0000003452344926238     0.0000002727980732067     0.0000001627128230934     0.0000000658911933341     -0.0000000016085502673     -0.0000000435092922123     -0.0000000633481882635     -0.0000000678084974104     -0.0000000627789436767     -0.0000000523068368150     -0.0000000391766614522     -0.0000000254480150379     -0.0000000123499272797     0.0000000000013098755 
    0.0000000000012595313     0.0000000180391611539     0.0000000363817925559     0.0000000545727460608     0.0000000712125103807     0.0000000841487352878     0.0000000901819045566     0.0000000838486272329     0.0000000562987458281     -0.0000000031737652882     -0.0000001060112826055     -0.0000002649764972302     -0.0000004411192263859     -0.0000005510917200858     -0.0000005162019741753     -0.0000003138851117611     -0.0000000000000649704     0.0000003138851696426     0.0000005162025257685     0.0000005510928942942     0.0000004411209416180     0.0000002649784994974     0.0000001060132283077     0.0000000031753187387     -0.0000000562976831916     -0.0000000838478758681     -0.0000000901812126212     -0.0000000841478559239     -0.0000000712112635072     -0.0000000545710514748     -0.0000000363796776674     -0.0000000180367491619     0.0000000000012595313 
    0.0000000000010887170     0.0000000222611400920     0.0000000446275176740     0.0000000664994424737     0.0000000864196105511     0.0000001021474899785     0.0000001099359085852     0.0000001025815163318     0.0000000677009188027     -0.0000000098600073698     -0.0000001577388541292     -0.0000003882362808214     -0.0000006360321131589     -0.0000007839634972626     -0.0000007273741080611     -0.0000004398360780407     -0.0000000000004708032     0.0000004398352890015     0.0000007273737246541     0.0000007839636450619     0.0000006360327725515     0.0000003882373105145     0.0000001577400319406     0.0000000098610836390     -0.0000000677001250144     -0.0000001025809077378     -0.0000001099352972862     -0.0000001021466884068     -0.0000000864184839223     -0.0000000664979373540     -0.0000000446256665018     -0.0000000222590485166     0.0000000000010887170 
    0.0000000000008055803     0.0000000252175582800     0.0000000504688574000     0.0000000751177286126     0.0000000977211302088     0.0000001159820994242     0.0000001256231031906     0.0000001177515161999     0.0000000765707452336     -0.0000000179425445467     -0.0000002112163236293     -0.0000005087380274225     -0.0000008213344893806     -0.0000010018757309837     -0.0000009231527190934     -0.0000005560238802313     -0.0000000000005964061     0.0000005560227920194     0.0000009231519115760     0.0000010018753029128     0.0000008213344570197     0.0000005087383362053     0.0000002112168579030     0.0000000179431459807     -0.0000000765702350237     -0.0000001177510878491     -0.0000001256226400484     -0.0000001159814806700     -0.0000000977202687266     -0.0000000751165930270     -0.0000000504674754921     -0.0000000252160071836     0.0000000000008055803 
    0.0000000000004297631     0.0000000269807802855     0.0000000539786367445     0.0000000803633613207     0.0000001047277797521     0.0000001247477625462     0.0000001357630789987     0.0000001276493405246     0.0000000821252718182     -0.0000000250527016023     -0.0000002519519682879     -0.0000005972584768999     -0.0000009551069112861     -0.0000011576493449492     -0.0000010622928519065     -0.0000006383389254943     -0.0000000000004021450     0.0000006383381733634     0.0000010622922406448     0.0000011576489284486     0.0000009551067089528     0.0000005972584778571     0.0000002519521289636     0.0000000250529475191     -0.0000000821250276603     -0.0000001276491194627     -0.0000001357628276546     -0.0000001247474233583     -0.0000001047273107347     -0.0000000803627483270     -0.0000000539778956182     -0.0000000269799517035     0.0000000000004297631 
    -0.0000000000000000000     0.0000000275677718907     0.0000000551515317905     0.0000000821275985896     0.0000001071058720477     0.0000001277546418526     0.0000001392741405525     0.0000001310882349843     0.0000000840813705490     -0.0000000279151443812     -0.0000002672121482861     -0.0000006298428318178     -0.0000010039387049869     -0.0000012142438292830     -0.0000011127020690872     -0.0000006681150842986     0.0000000000000000000     0.0000006681150842986     0.0000011127020690872     0.0000012142438292830     0.0000010039387049869     0.0000006298428318178     0.0000002672121482861     0.0000000279151443812     -0.0000000840813705490     -0.0000001310882349843     -0.0000001392741405525     -0.0000001277546418526     -0.0000001071058720477     -0.0000000821275985896     -0.0000000551515317905     -0.0000000275677718907     -0.0000000000000000000 
    -0.0000000000004297631     0.0000000269799517035     0.0000000539778956182     0.0000000803627483270     0.0000001047273107347     0.0000001247474233583     0.0000001357628276546     0.0000001276491194627     0.0000000821250276603     -0.0000000250529475191     -0.0000002519521289636     -0.0000005972584778571     -0.0000009551067089528     -0.0000011576489284486     -0.0000010622922406448     -0.0000006383381733634     0.0000000000004021450     0.0000006383389254943     0.0000010622928519065     0.0000011576493449492     0.0000009551069112861     0.0000005972584768999     0.0000002519519682879     0.0000000250527016023     -0.0000000821252718182     -0.0000001276493405246     -0.0000001357630789987     -0.0000001247477625462     -0.0000001047277797521     -0.0000000803633613207     -0.0000000539786367445     -0.0000000269807802855     -0.0000000000004297631 
    -0.0000000000008055803     0.0000000252160071836     0.0000000504674754921     0.0000000751165930270     0.0000000977202687266     0.0000001159814806700     0.0000001256226400484     0.0000001177510878491     0.0000000765702350237     -0.0000000179431459807     -0.0000002112168579030     -0.0000005087383362053     -0.0000008213344570197     -0.0000010018753029128     -0.0000009231519115760     -0.0000005560227920194     0.0000000000005964061     0.0000005560238802313     0.0000009231527190934     0.0000010018757309837     0.0000008213344893806     0.0000005087380274225     0.0000002112163236293     0.0000000179425445467     -0.0000000765707452336     -0.0000001177515161999     -0.0000001256231031906     -0.0000001159820994242     -0.0000000977211302088     -0.0000000751177286126     -0.0000000504688574000     -0.0000000252175582800     -0.0000000000008055803 
    -0.0000000000010887170     0.0000000222590485166     0.0000000446256665018     0.0000000664979373540     0.0000000864184839223     0.0000001021466884068     0.0000001099352972862     0.0000001025809077378     0.0000000677001250144     -0.0000000098610836390     -0.0000001577400319406     -0.0000003882373105145     -0.0000006360327725515     -0.0000007839636450619     -0.0000007273737246541     -0.0000004398352890015     0.0000000000004708032     0.0000004398360780407     0.0000007273741080611     0.0000007839634972626     0.0000006360321131589     0.0000003882362808214     0.0000001577388541292     0.0000000098600073698     -0.0000000677009188027     -0.0000001025815163318     -0.0000001099359085852     -0.0000001021474899785     -0.0000000864196105511     -0.0000000664994424737     -0.0000000446275176740     -0.0000000222611400920     -0.0000000000010887170 
    -0.0000000000012595313     0.0000000180367491619     0.0000000363796776674     0.0000000545710514748     0.0000000712112635072     0.0000000841478559239     0.0000000901812126212     0.0000000838478758681     0.0000000562976831916     -0.0000000031753187387     -0.0000001060132283077     -0.0000002649784994974     -0.0000004411209416180     -0.0000005510928942942     -0.0000005162025257685     -0.0000003138851696426     0.0000000000000649704     0.0000003138851117611     0.0000005162019741753     0.0000005510917200858     0.0000004411192263859     0.0000002649764972302     0.0000001060112826055     0.0000000031737652882     -0.0000000562987458281     -0.0000000838486272329     -0.0000000901819045566     -0.0000000841487352878     -0.0000000712125103807     -0.0000000545727460608     -0.0000000363817925559     -0.0000000180391611539     -0.0000000000012595313 
    -0.0000000000013098755     0.0000000123499272797     0.0000000254480150379     0.0000000391766614522     0.0000000523068368150     0.0000000627789436767     0.0000000678084974104     0.0000000633481882635     0.0000000435092922123     0.0000000016085502673     -0.0000000658911933341     -0.0000001627128230934     -0.0000002727980732067     -0.0000003452344926238     -0.0000003269469127392     -0.0000002001759248547     -0.0000000000004428562     0.0000002001748341287     0.0000003269452899976     0.0000003452322263628     0.0000002727953145087     0.0000001627099337553     0.0000000658886239742     -0.0000000016104605965     -0.0000000435105712941     -0.0000000633490411114     -0.0000000678092124007     -0.0000000627798059429     -0.0000000523080629000     -0.0000000391783615292     -0.0000000254501775632     -0.0000000123524248058     -0.0000000000013098755 
    -0.0000000000012346840     0.0000000047650500139     0.0000000111499398473     0.0000000196875978230     0.0000000294431456096     0.0000000383682699585     0.0000000437864501583     0.0000000424635285475     0.0000000304922123205     0.0000000039855457604     -0.0000000384463905562     -0.0000000924320902783     -0.0000001512997615875     -0.0000001917196506133     -0.0000001830090141199     -0.0000001127780836908     -0.0000000000008178396     0.0000001127762426990     0.0000001830066471191     0.0000001917166732073     0.0000001512963806882     0.0000000924287432989     0.0000000384435559068     -0.0000000039876662228     -0.0000000304936359951     -0.0000000424644454994     -0.0000000437871439386     -0.0000000383690341650     -0.0000000294442198270     -0.0000000196891232422     -0.0000000111519311255     -0.0000000047673901036     -0.0000000000012346840 
    -0.0000000000010337037     -0.0000000055180263922     -0.0000000078218868683     -0.0000000052621907162     0.0000000016095743262     0.0000000104988384888     0.0000000183066442987     0.0000000218191950137     0.0000000180170774755     0.0000000045408632262     -0.0000000190620648688     -0.0000000494279174097     -0.0000000781863922955     -0.0000000956936998970     -0.0000000905296184116     -0.0000000557828700445     -0.0000000000008792873     0.0000000557809176249     0.0000000905271742170     0.0000000956907032288     0.0000000781830767950     0.0000000494246743055     0.0000000190592415230     -0.0000000045430431807     -0.0000000180185771554     -0.0000000218201457183     -0.0000000183072821369     -0.0000000104994354695     -0.0000000016103784853     0.0000000052610088552     0.0000000078202789676     0.0000000055160849972     -0.0000000000010337037 
    -0.0000000000007240749     -0.0000000197703292405     -0.0000000335760454491     -0.0000000379698831937     -0.0000000331133340507     -0.0000000220909545202     -0.0000000092563806204     0.0000000012535145705     0.0000000062937742885     0.0000000040295240908     -0.0000000056566042417     -0.0000000205152047359     -0.0000000356258469116     -0.0000000444097327852     -0.0000000413081190383     -0.0000000250049352319     -0.0000000000005759538     0.0000000250036081261     0.0000000413063411061     0.0000000444074117461     0.0000000356231148101     0.0000000205123609305     0.0000000056539908319     -0.0000000040316464398     -0.0000000062952939973     -0.0000000012544720801     0.0000000092558275533     0.0000000220905780380     0.0000000331128909309     0.0000000379691790842     0.0000000335749963605     0.0000000197689924712     -0.0000000000007240749 
    -0.0000000000003520332     -0.0000000396940997092     -0.0000000689491903227     -0.0000000815607752561     -0.0000000774141825221     -0.0000000613161812361     -0.0000000400971083758     -0.0000000199200664168     -0.0000000049131876776     0.0000000029953756451     0.0000000037827614991     -0.0000000008928273328     -0.0000000079214130715     -0.0000000134322077134     -0.0000000141702005557     -0.0000000090700879371     -0.0000000000000982369     0.0000000090697114980     0.0000000141693457094     0.0000000134307395616     0.0000000079194029270     0.0000000008905170085     -0.0000000037850543019     -0.0000000029973616868     0.0000000049116973793     0.0000000199191314389     0.0000000400966603961     0.0000000613160478928     0.0000000774141369822     0.0000000815606097686     0.0000000689487903889     0.0000000396934826594     -0.0000000000003520332 
    0.0000000000000112253     -0.0000000670593419641     -0.0000001168814212175     -0.0000001392551798856     -0.0000001340408648880     -0.0000001091236262973     -0.0000000754503530354     -0.0000000424756985180     -0.0000000160041819023     0.0000000017003181346     0.0000000108102695839     0.0000000129268155238     0.0000000104717061902     0.0000000061917947040     0.0000000024649185667     0.0000000005105161844     0.0000000000002915256     -0.0000000005101069989     -0.0000000024649815118     -0.0000000061924938446     -0.0000000104730277618     -0.0000000129285812721     -0.0000000108121989358     -0.0000000017021102872     0.0000000160027746856     0.0000000424748194149     0.0000000754500137623     0.0000001091237111148     0.0000001340411744345     0.0000001392555084490     0.0000001168816355314     0.0000000670594217954     0.0000000000000112253 
    0.0000000000002673504     -0.0000001056101340570     -0.0000001807091625551     -0.0000002127199850057     -0.0000002043007208575     -0.0000001663362874976     -0.0000001158001930213     -0.0000000667699883318     -0.0000000272489312455     0.0000000002207079210     0.0000000163524937922     0.0000000232212072475     0.0000000233087244322     0.0000000191457025979     0.0000000129973626964     0.0000000064227906100     0.0000000000005373743     -0.0000000064218730593     -0.0000000129968795657     -0.0000000191458275399     -0.0000000233094855823     -0.0000000232224830959     -0.0000000163540483419     -0.0000000002222524117     0.0000000272476683939     0.0000000667691984951     0.0000001157999440361     0.0000001663365148286     0.0000002043012638550     0.0000002127206586310     0.0000001807098176849     0.0000001056107086068     0.0000000000002673504 
    0.0000000000003435051     -0.0000001622603186431     -0.0000002733281244842     -0.0000003098345125845     -0.0000002862241543189     -0.0000002311449015646     -0.0000001599608178308     -0.0000000922608198882     -0.0000000385544938768     -0.0000000014233210802     0.0000000208237813680     0.0000000311971385510     0.0000000327121122459     0.0000000281539899674     0.0000000200235124038     0.0000000102622806195     0.0000000000006374513     -0.0000000102611388982     -0.0000000200227435369     -0.0000000281537570564     -0.0000000327124645368     -0.0000000311979980329     -0.0000000208249602913     0.0000000014220748943     0.0000000385534359883     0.0000000922601479391     0.0000001599606262047     0.0000002311451677912     0.0000002862247645757     0.0000003098352778530     0.0000002733288919117     0.0000001622610333273     0.0000000000003435051 
    0.0000000000002942797     -0.0000002298684755025     -0.0000003856058737013     -0.0000004313216807337     -0.0000003842684431321     -0.0000002979418517414     -0.0000002044137412199     -0.0000001171993950004     -0.0000000493306576163     -0.0000000031557904974     0.0000000243246904317     0.0000000373427038262     0.0000000396844058904     0.0000000345813625392     0.0000000248766937304     0.0000000128569991558     0.0000000000006117170     -0.0000000128558800697     -0.0000000248758691787     -0.0000000345809682972     -0.0000000396844933747     -0.0000000373432252164     -0.0000000243255072168     0.0000000031548749482     0.0000000493298502773     0.0000001171988641573     0.0000002044135804383     0.0000002979420679733     0.0000003842689376209     0.0000004313222987127     0.0000003856065067950     0.0000002298690805069     0.0000000000002942797 
    0.0000000000001922493     -0.0000002950405922853     -0.0000004947663467137     -0.0000005515046882767     -0.0000004845592646283     -0.0000003609930515901     -0.0000002434558240169     -0.0000001387180750999     -0.0000000585059154330     -0.0000000047728278914     0.0000000268324450127     0.0000000417681102272     0.0000000445992659381     0.0000000390082789190     0.0000000281526508452     0.0000000145842274975     0.0000000000004802909     -0.0000000145833388902     -0.0000000281519662471     -0.0000000390078948460     -0.0000000445992226396     -0.0000000417683803117     -0.0000000268329381467     0.0000000047722432117     0.0000000585053796684     0.0000001387177057011     0.0000002434556933007     0.0000003609931733365     0.0000004845595610490     0.0000005515050698789     0.0000004947667483413     0.0000002950409842785     0.0000000000001922493 
    0.0000000000000893574     -0.0000003424161792877     -0.0000005744831399183     -0.0000006400901880073     -0.0000005597998545788     -0.0000004099277852968     -0.0000002704954406528     -0.0000001534762150846     -0.0000000647651430931     -0.0000000059552521014     0.0000000283267651763     0.0000000444483438004     0.0000000475482621374     0.0000000416341228117     0.0000000300762861188     0.0000000155913529213     0.0000000000002647874     -0.0000000155908601658     -0.0000000300758978960     -0.0000000416338890803     -0.0000000475482045422     -0.0000000444484498042     -0.0000000283269904662     0.0000000059549724798     0.0000000647648786738     0.0000001534760248540     0.0000002704953634275     0.0000004099278273313     0.0000005597999785143     0.0000006400903554960     0.0000005744833216935     0.0000003424163602246     0.0000000000000893574 
    -0.0000000000000000000     -0.0000003597626249491     -0.0000006037301691080     -0.0000006727241863982     -0.0000005877331526016     -0.0000004283769754526     -0.0000002801943415380     -0.0000001587474658860     -0.0000000669974761501     -0.0000000063928081765     0.0000000288207454258     0.0000000453462648305     0.0000000485333018107     0.0000000425073858122     0.0000000307135514573     0.0000000159240447770     0.0000000000000000000     -0.0000000159240447770     -0.0000000307135514573     -0.0000000425073858122     -0.0000000485333018107     -0.0000000453462648305     -0.0000000288207454258     0.0000000063928081765     0.0000000669974761501     0.0000001587474658860     0.0000002801943415380     0.0000004283769754526     0.0000005877331526016     0.0000006727241863982     0.0000006037301691080     0.0000003597626249491     -0.0000000000000000000 
    -0.0000000000000000000     -0.0000002037903969299     -0.0000003465633974184     -0.0000004012586227400     -0.0000003864437252031     -0.0000003250872124171     -0.0000002406446918945     -0.0000001569947000477     -0.0000000873361045995     -0.0000000357299991721     -0.0000000012358815194     0.0000000187657107157     0.0000000271331655310     0.0000000267505170943     0.0000000204972368671     0.0000000109388070109     0.0000000000000000000     -0.0000000109388070109     -0.0000000204972368671     -0.0000000267505170943     -0.0000000271331655310     -0.0000000187657107157     0.0000000012358815194     0.0000000357299991721     0.0000000873361045995     0.0000001569947000477     0.0000002406446918945     0.0000003250872124171     0.0000003864437252031     0.0000004012586227400     0.0000003465633974184     0.0000002037903969299     -0.0000000000000000000 
    -0.0000000000000308611     -0.0000001943287664632     -0.0000003310935821383     -0.0000003850804048554     -0.0000003732667845119     -0.0000003145604399502     -0.0000002332753320686     -0.0000001524128761846     -0.0000000848278935528     -0.0000000346077328022     -0.0000000009748508932     0.0000000185374488620     0.0000000266833060702     0.0000000262725939911     0.0000000201202369128     0.0000000107351525499     -0.0000000000001977393     -0.0000000107355087710     -0.0000000201204819774     -0.0000000262726755111     -0.0000000266832018982     -0.0000000185371720504     0.0000000009752559211     0.0000000346082023246     0.0000000848283605341     0.0000001524132847271     0.0000002332756464497     0.0000003145606468330     0.0000003732668892830     0.0000003850804277174     0.0000003310935543536     0.0000001943287126228     -0.0000000000000308611 
    -0.0000000000000383162     -0.0000001690468178381     -0.0000002899778419393     -0.0000003425927064406     -0.0000003365734560262     -0.0000002850832981263     -0.0000002125016836774     -0.0000001394030461890     -0.0000000776577806371     -0.0000000313889308696     -0.0000000002434552903     0.0000000178379306706     0.0000000253282004164     0.0000000248325313104     0.0000000189817975514     0.0000000101191664140     -0.0000000000003505250     -0.0000000101197903486     -0.0000000189822033399     -0.0000000248326168355     -0.0000000253279238281     -0.0000000178373202036     0.0000000002443090090     0.0000000313898990498     0.0000000776587288167     0.0000001394038643555     0.0000002125023057632     0.0000002850837066571     0.0000003365736725394     0.0000003425927742847     0.0000002899778200012     0.0000001690467533409     -0.0000000000000383162 
    0.0000000000000094039     -0.0000001359735152306     -0.0000002368854590510     -0.0000002866223978196     -0.0000002836979017643     -0.0000002421137928743     -0.0000001817944428402     -0.0000001198716791116     -0.0000000667287768597     -0.0000000264331564868     0.0000000008452327924     0.0000000166364566191     0.0000000230418002420     0.0000000223855830229     0.0000000170290794610     0.0000000090548750746     -0.0000000000004235327     -0.0000000090556093918     -0.0000000170294959065     -0.0000000223855360820     -0.0000000230412354725     -0.0000000166354235758     -0.0000000008438714298     0.0000000264346534104     0.0000000667302128742     0.0000001198728993562     0.0000001817953634072     0.0000002421144066727     0.0000002836982602190     0.0000002866225779974     0.0000002368855340545     0.0000001359735451716     0.0000000000000094039 
    0.0000000000001512183     -0.0000001043416489473     -0.0000001841004594701     -0.0000002242525124643     -0.0000002236319149420     -0.0000001924059163632     -0.0000001454736327178     -0.0000000961770101382     -0.0000000531157061803     -0.0000000201187834693     0.0000000022066278328     0.0000000149027814689     0.0000000197316499422     0.0000000187591328913     0.0000000140664115949     0.0000000074123079897     -0.0000000000003888821     -0.0000000074129399932     -0.0000000140666357337     -0.0000000187587716195     -0.0000000197306506327     -0.0000000149012273563     -0.0000000022047122277     0.0000000201208115816     0.0000000531176062376     0.0000000961786050230     0.0000001454748417039     0.0000001924067580446     0.0000002236324789323     0.0000002242529115474     0.0000001841007857616     0.0000001043419542422     0.0000000000001512183 
    0.0000000000003917051     -0.0000000755276419734     -0.0000001336820812893     -0.0000001636264120279     -0.0000001640960996685     -0.0000001418578947818     -0.0000001073506252626     -0.0000000703686742801     -0.0000000376687275753     -0.0000000126447719666     0.0000000038600226261     0.0000000125762798302     0.0000000151075949986     0.0000000134522098759     0.0000000095511244131     0.0000000048383521139     -0.0000000000002173550     -0.0000000048386114735     -0.0000000095508992199     -0.0000000134513073846     -0.0000000151059862507     -0.0000000125741001486     -0.0000000038575230234     0.0000000126473015364     0.0000000376710334910     0.0000000703705927829     0.0000001073521068660     0.0000001418589975076     0.0000001640969517291     0.0000001636271547475     0.0000001336828165693     0.0000000755284083957     0.0000000000003917051 
    0.0000000000007033350     -0.0000000506652516708     -0.0000000897178006779     -0.0000001098066351632     -0.0000001098693455843     -0.0000000942314290969     -0.0000000698794429693     -0.0000000436830669692     -0.0000000207312283156     -0.0000000038912002962     0.0000000059421468415     0.0000000094342511692     0.0000000083983686472     0.0000000052480222155     0.0000000022124712141     0.0000000005185586953     0.0000000000001128689     -0.0000000005181333041     -0.0000000022115034617     -0.0000000052463245171     -0.0000000083959603852     -0.0000000094313393311     -0.0000000059390430455     0.0000000038941845341     0.0000000207338628153     0.0000000436852413646     0.0000000698811684392     0.0000000942328145843     0.0000001098705536280     0.0000001098078238431     0.0000000897190698608     0.0000000506666171530     0.0000000000007033350 
    0.0000000000010421504     -0.0000000304694736974     -0.0000000535294700448     -0.0000000644988571891     -0.0000000627227169531     -0.0000000510164415196     -0.0000000339928720105     -0.0000000163845571293     -0.0000000020138496005     0.0000000066344441808     0.0000000086282758196     0.0000000048170494373     -0.0000000021400593100     -0.0000000084238597445     -0.0000000105620443034     -0.0000000072024299048     0.0000000000005818822     0.0000000072038099402     0.0000000105640002035     0.0000000084265551034     0.0000000021434081149     -0.0000000048133373133     -0.0000000086245705783     -0.0000000066310609438     0.0000000020167333575     0.0000000163869149823     0.0000000339947974328     0.0000000510181017720     0.0000000627243036500     0.0000000645005338473     0.0000000535313241004     0.0000000304714920891     0.0000000000010421504 
    0.0000000000013541641     -0.0000000145435483531     -0.0000000245341639409     -0.0000000272046130726     -0.0000000223822883661     -0.0000000120783160648     0.0000000005490108582     0.0000000120882164258     0.0000000193455848888     0.0000000197124717752     0.0000000119155319748     -0.0000000028076837664     -0.0000000198964935800     -0.0000000325508302382     -0.0000000346619942145     -0.0000000225649546219     0.0000000000009685169     0.0000000225671504493     0.0000000346648623529     0.0000000325545053846     0.0000000199007589171     0.0000000028121408157     -0.0000000119113006531     -0.0000000197087729505     -0.0000000193425328471     -0.0000000120857456456     -0.0000000005469413069     0.0000000120802091883     0.0000000223842199249     0.0000000272067435330     0.0000000245365614857     0.0000000145461697635     0.0000000000013541641 
    0.0000000000015915170     -0.0000000020648407117     -0.0000000014005755366     0.0000000034761322123     0.0000000123091849291     0.0000000234689711668     0.0000000345710630100     0.0000000427284040051     0.0000000444751137238     0.0000000361027695992     0.0000000152502790960     -0.0000000161309098410     -0.0000000520108506420     -0.0000000814578153007     -0.0000000858329997413     -0.0000000554399322327     0.0000000000009115459     0.0000000554420597683     0.0000000858359240530     0.0000000814617189791     0.0000000520155262283     0.0000000161358292818     -0.0000000152457300866     -0.0000000360989041483     -0.0000000444719950912     -0.0000000427258948439     -0.0000000345689150926     -0.0000000234669150953     -0.0000000123069913273     -0.0000000034736499125     0.0000000014033926869     0.0000000020679230141     0.0000000000015915170 
    0.0000000000017223779     0.0000000077758076473     0.0000000171947402047     0.0000000289597790727     0.0000000425442517788     0.0000000565288016802     0.0000000688456324665     0.0000000763624840134     0.0000000741780239207     0.0000000560042285191     0.0000000183654332043     -0.0000000395622899377     -0.0000001146899304876     -0.0000001746540434053     -0.0000001802199211939     -0.0000001148910894824     0.0000000000003776006     0.0000001148921803135     0.0000001802219004378     0.0000001746571517675     0.0000001146940183097     0.0000000395668815354     -0.0000000183609684001     -0.0000000560004344892     -0.0000000741749832025     -0.0000000763600295463     -0.0000000688434859646     -0.0000000565266746520     -0.0000000425419140148     -0.0000000289570944123     -0.0000000171916840249     -0.0000000077724685538     0.0000000000017223779 
    0.0000000000017304361     0.0000000155919969887     0.0000000322456171063     0.0000000502771274337     0.0000000691065870827     0.0000000875271818355     0.0000001035044461902     0.0000001129420410312     0.0000001081748884096     0.0000000796528856552     0.0000000228143871526     -0.0000000848208127509     -0.0000002216536362415     -0.0000003240655061062     -0.0000003264895266341     -0.0000002054368350830     -0.0000000000004669600     0.0000002054362407056     0.0000003264898431721     0.0000003240670247712     0.0000002216562999351     0.0000000848242620038     -0.0000000228106859695     -0.0000000796494819483     -0.0000001081721125567     -0.0000001129397613030     -0.0000001035024008101     -0.0000000875250962626     -0.0000000691042480646     -0.0000000502744197226     -0.0000000322425348764     -0.0000000155886380049     0.0000000000017304361 
    0.0000000000016090152     0.0000000217762218661     0.0000000443633155083     0.0000000679817309023     0.0000000922121339888     0.0000001161412423953     0.0000001376080303995     0.0000001509575820964     0.0000001445254569231     0.0000001124575176964     0.0000000205117193663     -0.0000001577203121427     -0.0000003734277960503     -0.0000005257066109287     -0.0000005188707684251     -0.0000003229868946775     -0.0000000000012979557     0.0000003229846066352     0.0000005188693181308     0.0000005257063096100     0.0000003734286862207     0.0000001577221884498     -0.0000000205092433929     -0.0000001124549076954     -0.0000001445231373172     -0.0000001509556120097     -0.0000001376062035602     -0.0000001161393293191     -0.0000000922099560411     -0.0000000679791986856     -0.0000000443604375152     -0.0000000217730945177     0.0000000000016090152 
    0.0000000000013579512     0.0000000265373707168     0.0000000538341428271     0.0000000821997644777     0.0000001115231659833     0.0000001412555892114     0.0000001690347274901     0.0000001873016589057     0.0000001826620011611     0.0000001468514510820     0.0000000076701011163     -0.0000002514748378626     -0.0000005523212667528     -0.0000007550671370306     -0.0000007336623894308     -0.0000004529810430446     -0.0000000000017697904     0.0000004529777475315     0.0000007336597675527     0.0000007550654745523     0.0000005523206772160     0.0000002514752614428     -0.0000000076688896180     -0.0000001468497999298     -0.0000001826602898759     -0.0000001873001166355     -0.0000001690332391019     -0.0000001412539892674     -0.0000001115213222845     -0.0000000821976152789     -0.0000000538317047322     -0.0000000265347283511     0.0000000000013579512 
    0.0000000000009866898     0.0000000299524636251     0.0000000607088253002     0.0000000927443670013     0.0000001262952414240     0.0000001611759902891     0.0000001948134856265     0.0000002177839352588     0.0000002208160328641     0.0000001750056800862     -0.0000000120727062960     -0.0000003469022738698     -0.0000007244559238857     -0.0000009704790086880     -0.0000009327748618013     -0.0000005726635469582     -0.0000000000016700715     0.0000005726603695283     0.0000009327721394572     0.0000009704769572853     0.0000007244546722552     0.0000003469018516498     0.0000000120730179775     -0.0000001750048545955     -0.0000002208149784069     -0.0000002177828926775     -0.0000001948124369605     -0.0000001611748359696     -0.0000001262938982425     -0.0000000927427984720     -0.0000000607070486825     -0.0000000299505420347     0.0000000000009866898 
    0.0000000000005200430     0.0000000320203762390     0.0000000649059904523     0.0000000992776389674     0.0000001356402278670     0.0000001740765376758     0.0000002118526946256     0.0000002381712203520     0.0000002484366794160     0.0000001927653042787     -0.0000000299326933286     -0.0000004186780486268     -0.0000008496391415655     -0.0000011247726545158     -0.0000010741998336781     -0.0000006572905036947     -0.0000000000010070510     0.0000006572885689505     0.0000010741981231567     0.0000011247712833060     0.0000008496381934572     0.0000004186775658271     0.0000000299326511450     -0.0000001927650086209     -0.0000002484361983312     -0.0000002381707000120     -0.0000002118521539474     -0.0000001740759322646     -0.0000001356395187939     -0.0000000992768099981     -0.0000000649050524161     -0.0000000320193629173     0.0000000000005200430 
    -0.0000000000000000000     0.0000000327139622138     0.0000000663199807110     0.0000001014953187791     0.0000001388455982101     0.0000001785522771054     0.0000002178209939527     0.0000002453473549484     0.0000002584510131448     0.0000001987524714233     -0.0000000371045210618     -0.0000004453895852687     -0.0000008954935262626     -0.0000011808754838185     -0.0000011254106798663     -0.0000006878656470495     0.0000000000000000000     0.0000006878656470495     0.0000011254106798663     0.0000011808754838185     0.0000008954935262626     0.0000004453895852687     0.0000000371045210618     -0.0000001987524714233     -0.0000002584510131448     -0.0000002453473549484     -0.0000002178209939527     -0.0000001785522771054     -0.0000001388455982101     -0.0000001014953187791     -0.0000000663199807110     -0.0000000327139622138     -0.0000000000000000000 
    -0.0000000000005200430     0.0000000320193629173     0.0000000649050524161     0.0000000992768099981     0.0000001356395187939     0.0000001740759322646     0.0000002118521539474     0.0000002381707000120     0.0000002484361983312     0.0000001927650086209     -0.0000000299326511450     -0.0000004186775658271     -0.0000008496381934572     -0.0000011247712833060     -0.0000010741981231567     -0.0000006572885689505     0.0000000000010070510     0.0000006572905036947     0.0000010741998336781     0.0000011247726545158     0.0000008496391415655     0.0000004186780486268     0.0000000299326933286     -0.0000001927653042787     -0.0000002484366794160     -0.0000002381712203520     -0.0000002118526946256     -0.0000001740765376758     -0.0000001356402278670     -0.0000000992776389674     -0.0000000649059904523     -0.0000000320203762390     -0.0000000000005200430 
    -0.0000000000009866898     0.0000000299505420347     0.0000000607070486825     0.0000000927427984720     0.0000001262938982425     0.0000001611748359696     0.0000001948124369605     0.0000002177828926775     0.0000002208149784069     0.0000001750048545955     -0.0000000120730179775     -0.0000003469018516498     -0.0000007244546722552     -0.0000009704769572853     -0.0000009327721394572     -0.0000005726603695283     0.0000000000016700715     0.0000005726635469582     0.0000009327748618013     0.0000009704790086880     0.0000007244559238857     0.0000003469022738698     0.0000000120727062960     -0.0000001750056800862     -0.0000002208160328641     -0.0000002177839352588     -0.0000001948134856265     -0.0000001611759902891     -0.0000001262952414240     -0.0000000927443670013     -0.0000000607088253002     -0.0000000299524636251     -0.0000000000009866898 
    -0.0000000000013579512     0.0000000265347283511     0.0000000538317047322     0.0000000821976152789     0.0000001115213222845     0.0000001412539892674     0.0000001690332391019     0.0000001873001166355     0.0000001826602898759     0.0000001468497999298     0.0000000076688896180     -0.0000002514752614428     -0.0000005523206772160     -0.0000007550654745523     -0.0000007336597675527     -0.0000004529777475315     0.0000000000017697904     0.0000004529810430446     0.0000007336623894308     0.0000007550671370306     0.0000005523212667528     0.0000002514748378626     -0.0000000076701011163     -0.0000001468514510820     -0.0000001826620011611     -0.0000001873016589057     -0.0000001690347274901     -0.0000001412555892114     -0.0000001115231659833     -0.0000000821997644777     -0.0000000538341428271     -0.0000000265373707168     -0.0000000000013579512 
    -0.0000000000016090152     0.0000000217730945177     0.0000000443604375152     0.0000000679791986856     0.0000000922099560411     0.0000001161393293191     0.0000001376062035602     0.0000001509556120097     0.0000001445231373172     0.0000001124549076954     0.0000000205092433929     -0.0000001577221884498     -0.0000003734286862207     -0.0000005257063096100     -0.0000005188693181308     -0.0000003229846066352     0.0000000000012979557     0.0000003229868946775     0.0000005188707684251     0.0000005257066109287     0.0000003734277960503     0.0000001577203121427     -0.0000000205117193663     -0.0000001124575176964     -0.0000001445254569231     -0.0000001509575820964     -0.0000001376080303995     -0.0000001161412423953     -0.0000000922121339888     -0.0000000679817309023     -0.0000000443633155083     -0.0000000217762218661     -0.0000000000016090152 
    -0.0000000000017304361     0.0000000155886380049     0.0000000322425348764     0.0000000502744197226     0.0000000691042480646     0.0000000875250962626     0.0000001035024008101     0.0000001129397613030     0.0000001081721125567     0.0000000796494819483     0.0000000228106859695     -0.0000000848242620038     -0.0000002216562999351     -0.0000003240670247712     -0.0000003264898431721     -0.0000002054362407056     0.0000000000004669600     0.0000002054368350830     0.0000003264895266341     0.0000003240655061062     0.0000002216536362415     0.0000000848208127509     -0.0000000228143871526     -0.0000000796528856552     -0.0000001081748884096     -0.0000001129420410312     -0.0000001035044461902     -0.0000000875271818355     -0.0000000691065870827     -0.0000000502771274337     -0.0000000322456171063     -0.0000000155919969887     -0.0000000000017304361 
    -0.0000000000017223779     0.0000000077724685538     0.0000000171916840249     0.0000000289570944123     0.0000000425419140148     0.0000000565266746520     0.0000000688434859646     0.0000000763600295463     0.0000000741749832025     0.0000000560004344892     0.0000000183609684001     -0.0000000395668815354     -0.0000001146940183097     -0.0000001746571517675     -0.0000001802219004378     -0.0000001148921803135     -0.0000000000003776006     0.0000001148910894824     0.0000001802199211939     0.0000001746540434053     0.0000001146899304876     0.0000000395622899377     -0.0000000183654332043     -0.0000000560042285191     -0.0000000741780239207     -0.0000000763624840134     -0.0000000688456324665     -0.0000000565288016802     -0.0000000425442517788     -0.0000000289597790727     -0.0000000171947402047     -0.0000000077758076473     -0.0000000000017223779 
    -0.0000000000015915170     -0.0000000020679230141     -0.0000000014033926869     0.0000000034736499125     0.0000000123069913273     0.0000000234669150953     0.0000000345689150926     0.0000000427258948439     0.0000000444719950912     0.0000000360989041483     0.0000000152457300866     -0.0000000161358292818     -0.0000000520155262283     -0.0000000814617189791     -0.0000000858359240530     -0.0000000554420597683     -0.0000000000009115459     0.0000000554399322327     0.0000000858329997413     0.0000000814578153007     0.0000000520108506420     0.0000000161309098410     -0.0000000152502790960     -0.0000000361027695992     -0.0000000444751137238     -0.0000000427284040051     -0.0000000345710630100     -0.0000000234689711668     -0.0000000123091849291     -0.0000000034761322123     0.0000000014005755366     0.0000000020648407117     -0.0000000000015915170 
    -0.0000000000013541641     -0.0000000145461697635     -0.0000000245365614857     -0.0000000272067435330     -0.0000000223842199249     -0.0000000120802091883     0.0000000005469413069     0.0000000120857456456     0.0000000193425328471     0.0000000197087729505     0.0000000119113006531     -0.0000000028121408157     -0.0000000199007589171     -0.0000000325545053846     -0.0000000346648623529     -0.0000000225671504493     -0.0000000000009685169     0.0000000225649546219     0.0000000346619942145     0.0000000325508302382     0.0000000198964935800     0.0000000028076837664     -0.0000000119155319748     -0.0000000197124717752     -0.0000000193455848888     -0.0000000120882164258     -0.0000000005490108582     0.0000000120783160648     0.0000000223822883661     0.0000000272046130726     0.0000000245341639409     0.0000000145435483531     -0.0000000000013541641 
    -0.0000000000010421504     -0.0000000304714920891     -0.0000000535313241004     -0.0000000645005338473     -0.0000000627243036500     -0.0000000510181017720     -0.0000000339947974328     -0.0000000163869149823     -0.0000000020167333575     0.0000000066310609438     0.0000000086245705783     0.0000000048133373133     -0.0000000021434081149     -0.0000000084265551034     -0.0000000105640002035     -0.0000000072038099402     -0.0000000000005818822     0.0000000072024299048     0.0000000105620443034     0.0000000084238597445     0.0000000021400593100     -0.0000000048170494373     -0.0000000086282758196     -0.0000000066344441808     0.0000000020138496005     0.0000000163845571293     0.0000000339928720105     0.0000000510164415196     0.0000000627227169531     0.0000000644988571891     0.0000000535294700448     0.0000000304694736974     -0.0000000000010421504 
    -0.0000000000007033350     -0.0000000506666171530     -0.0000000897190698608     -0.0000001098078238431     -0.0000001098705536280     -0.0000000942328145843     -0.0000000698811684392     -0.0000000436852413646     -0.0000000207338628153     -0.0000000038941845341     0.0000000059390430455     0.0000000094313393311     0.0000000083959603852     0.0000000052463245171     0.0000000022115034617     0.0000000005181333041     -0.0000000000001128689     -0.0000000005185586953     -0.0000000022124712141     -0.0000000052480222155     -0.0000000083983686472     -0.0000000094342511692     -0.0000000059421468415     0.0000000038912002962     0.0000000207312283156     0.0000000436830669692     0.0000000698794429693     0.0000000942314290969     0.0000001098693455843     0.0000001098066351632     0.0000000897178006779     0.0000000506652516708     -0.0000000000007033350 
    -0.0000000000003917051     -0.0000000755284083957     -0.0000001336828165693     -0.0000001636271547475     -0.0000001640969517291     -0.0000001418589975076     -0.0000001073521068660     -0.0000000703705927829     -0.0000000376710334910     -0.0000000126473015364     0.0000000038575230234     0.0000000125741001486     0.0000000151059862507     0.0000000134513073846     0.0000000095508992199     0.0000000048386114735     0.0000000000002173550     -0.0000000048383521139     -0.0000000095511244131     -0.0000000134522098759     -0.0000000151075949986     -0.0000000125762798302     -0.0000000038600226261     0.0000000126447719666     0.0000000376687275753     0.0000000703686742801     0.0000001073506252626     0.0000001418578947818     0.0000001640960996685     0.0000001636264120279     0.0000001336820812893     0.0000000755276419734     -0.0000000000003917051 
    -0.0000000000001512183     -0.0000001043419542422     -0.0000001841007857616     -0.0000002242529115474     -0.0000002236324789323     -0.0000001924067580446     -0.0000001454748417039     -0.0000000961786050230     -0.0000000531176062376     -0.0000000201208115816     0.0000000022047122277     0.0000000149012273563     0.0000000197306506327     0.0000000187587716195     0.0000000140666357337     0.0000000074129399932     0.0000000000003888821     -0.0000000074123079897     -0.0000000140664115949     -0.0000000187591328913     -0.0000000197316499422     -0.0000000149027814689     -0.0000000022066278328     0.0000000201187834693     0.0000000531157061803     0.0000000961770101382     0.0000001454736327178     0.0000001924059163632     0.0000002236319149420     0.0000002242525124643     0.0000001841004594701     0.0000001043416489473     -0.0000000000001512183 
    -0.0000000000000094039     -0.0000001359735451716     -0.0000002368855340545     -0.0000002866225779974     -0.0000002836982602190     -0.0000002421144066727     -0.0000001817953634072     -0.0000001198728993562     -0.0000000667302128742     -0.0000000264346534104     0.0000000008438714298     0.0000000166354235758     0.0000000230412354725     0.0000000223855360820     0.0000000170294959065     0.0000000090556093918     0.0000000000004235327     -0.0000000090548750746     -0.0000000170290794610     -0.0000000223855830229     -0.0000000230418002420     -0.0000000166364566191     -0.0000000008452327924     0.0000000264331564868     0.0000000667287768597     0.0000001198716791116     0.0000001817944428402     0.0000002421137928743     0.0000002836979017643     0.0000002866223978196     0.0000002368854590510     0.0000001359735152306     -0.0000000000000094039 
    0.0000000000000383162     -0.0000001690467533409     -0.0000002899778200012     -0.0000003425927742847     -0.0000003365736725394     -0.0000002850837066571     -0.0000002125023057632     -0.0000001394038643555     -0.0000000776587288167     -0.0000000313898990498     -0.0000000002443090090     0.0000000178373202036     0.0000000253279238281     0.0000000248326168355     0.0000000189822033399     0.0000000101197903486     0.0000000000003505250     -0.0000000101191664140     -0.0000000189817975514     -0.0000000248325313104     -0.0000000253282004164     -0.0000000178379306706     0.0000000002434552903     0.0000000313889308696     0.0000000776577806371     0.0000001394030461890     0.0000002125016836774     0.0000002850832981263     0.0000003365734560262     0.0000003425927064406     0.0000002899778419393     0.0000001690468178381     0.0000000000000383162 
    0.0000000000000308611     -0.0000001943287126228     -0.0000003310935543536     -0.0000003850804277174     -0.0000003732668892830     -0.0000003145606468330     -0.0000002332756464497     -0.0000001524132847271     -0.0000000848283605341     -0.0000000346082023246     -0.0000000009752559211     0.0000000185371720504     0.0000000266832018982     0.0000000262726755111     0.0000000201204819774     0.0000000107355087710     0.0000000000001977393     -0.0000000107351525499     -0.0000000201202369128     -0.0000000262725939911     -0.0000000266833060702     -0.0000000185374488620     0.0000000009748508932     0.0000000346077328022     0.0000000848278935528     0.0000001524128761846     0.0000002332753320686     0.0000003145604399502     0.0000003732667845119     0.0000003850804048554     0.0000003310935821383     0.0000001943287664632     0.0000000000000308611 
    -0.0000000000000000000     -0.0000002037903969299     -0.0000003465633974184     -0.0000004012586227400     -0.0000003864437252031     -0.0000003250872124171     -0.0000002406446918945     -0.0000001569947000477     -0.0000000873361045995     -0.0000000357299991721     -0.0000000012358815194     0.0000000187657107157     0.0000000271331655310     0.0000000267505170943     0.0000000204972368671     0.0000000109388070109     0.0000000000000000000     -0.0000000109388070109     -0.0000000204972368671     -0.0000000267505170943     -0.0000000271331655310     -0.0000000187657107157     0.0000000012358815194     0.0000000357299991721     0.0000000873361045995     0.0000001569947000477     0.0000002406446918945     0.0000003250872124171     0.0000003864437252031     0.0000004012586227400     0.0000003465633974184     0.0000002037903969299     -0.0000000000000000000 
    0.0000000000000000000     -0.0000001226918277249     -0.0000002177409854199     -0.0000002682550335867     -0.0000002727679701953     -0.0000002422212818917     -0.0000001926038664076     -0.0000001382144187626     -0.0000000884393915406     -0.0000000478661449884     -0.0000000179115914439     0.0000000016747471186     0.0000000120435195377     0.0000000149661942479     0.0000000125814847424     0.0000000070042237522     0.0000000000000000000     -0.0000000070042237522     -0.0000000125814847424     -0.0000000149661942479     -0.0000000120435195377     -0.0000000016747471186     0.0000000179115914439     0.0000000478661449884     0.0000000884393915406     0.0000001382144187626     0.0000001926038664076     0.0000002422212818917     0.0000002727679701953     0.0000002682550335867     0.0000002177409854199     0.0000001226918277249     0.0000000000000000000 
    0.0000000000001203405     -0.0000001185009708905     -0.0000002104851362933     -0.0000002596651882025     -0.0000002644758181674     -0.0000002352716391848     -0.0000001873635974100     -0.0000001345758038027     -0.0000000860939421813     -0.0000000464891975156     -0.0000000172274524653     0.0000000018955612611     0.0000000119962108031     0.0000000148086431275     0.0000000124248331916     0.0000000069123822874     -0.0000000000001443621     -0.0000000069126292188     -0.0000000124249626079     -0.0000000148086015426     -0.0000000119959770092     -0.0000000018951491675     0.0000000172279993638     0.0000000464898184117     0.0000000860945741695     0.0000001345763956659     0.0000001873641183187     0.0000002352720801717     0.0000002644761868118     0.0000002596655001328     0.0000002104854085070     0.0000001185012194763     0.0000000000001203405 
    0.0000000000002658487     -0.0000001068932974560     -0.0000001903323061460     -0.0000002356968492899     -0.0000002411902393499     -0.0000002156024599009     -0.0000001724026149774     -0.0000001240967005783     -0.0000000792861889986     -0.0000000424670247037     -0.0000000152191835210     0.0000000025459696955     0.0000000118554517178     0.0000000143400893446     0.0000000119578383996     0.0000000066382378008     -0.0000000000002480328     -0.0000000066386513004     -0.0000000119580197896     -0.0000000143399333438     -0.0000000118549176602     -0.0000000025450874869     0.0000000152203246075     0.0000000424683012343     0.0000000792874747327     0.0000001240978948737     0.0000001724036605657     0.0000002156033453734     0.0000002411909869577     0.0000002356974955884     0.0000001903328865560     0.0000001068938410592     0.0000000000002658487 
    0.0000000000004567589     -0.0000000903196021684     -0.0000001613950224487     -0.0000002009577794787     -0.0000002070044796180     -0.0000001862666442082     -0.0000001496916657126     -0.0000001079004725829     -0.0000000685848001127     -0.0000000360464179185     -0.0000000119644320014     0.0000000036227174213     0.0000000116350334941     0.0000000135637951568     0.0000000111709231625     0.0000000061713936859     -0.0000000000002751294     -0.0000000061718221039     -0.0000000111710098853     -0.0000000135633880188     -0.0000000116340788614     -0.0000000036212680504     0.0000000119662362703     0.0000000360483906342     0.0000000685867565568     0.0000001079022717838     0.0000001496932351614     0.0000001862679811227     0.0000002070056299747     0.0000002009588060897     0.0000001613959792481     0.0000000903205254925     0.0000000000004567589 
    0.0000000000007029794     -0.0000000716808013640     -0.0000001285715689743     -0.0000001609919506942     -0.0000001669075736079     -0.0000001510325107081     -0.0000001216745316974     -0.0000000873497584621     -0.0000000546149800101     -0.0000000274145166754     -0.0000000074336665637     0.0000000052139127415     0.0000000113800650287     0.0000000124463568140     0.0000000099820286552     0.0000000054456759886     -0.0000000000001907075     -0.0000000054458977273     -0.0000000099818054674     -0.0000000124454996370     -0.0000000113785220984     -0.0000000052117746340     0.0000000074362016075     0.0000000274172036822     0.0000000546175920757     0.0000000873521364086     0.0000001216766080651     0.0000001510343047093     0.0000001669091606868     0.0000001609934200632     0.0000001285729893165     0.0000000716822087832     0.0000000000007029794 
    0.0000000000009993123     -0.0000000533367000510     -0.0000000958958383001     -0.0000001204535046953     -0.0000001251861987911     -0.0000001132044787021     -0.0000000904939549262     -0.0000000635554718472     -0.0000000377222629713     -0.0000000164427088118     -0.0000000013017104104     0.0000000075970275251     0.0000000111558340579     0.0000000108136905256     0.0000000080976688172     0.0000000042422201412     0.0000000000000409863     -0.0000000042419420088     -0.0000000080968502779     -0.0000000108121210589     -0.0000000111534875106     -0.0000000075940557551     0.0000000013050400124     0.0000000164461026216     0.0000000377254798442     0.0000000635583689552     0.0000000904964979626     0.0000001132067231875     0.0000001251882511108     0.0000001204554750311     0.0000000958978028121     0.0000000533386866713     0.0000000000009993123 
    0.0000000000013238771     -0.0000000366446960501     -0.0000000657488866714     -0.0000000821961091910     -0.0000000845797422520     -0.0000000749492940855     -0.0000000574967052626     -0.0000000370052123972     -0.0000000176642729533     -0.0000000024232709674     0.0000000072379911745     0.0000000112890113179     0.0000000109250505891     0.0000000080827001388     0.0000000047039214908     0.0000000019830876326     0.0000000000004348942     -0.0000000019819867891     -0.0000000047021939394     -0.0000000080801320278     -0.0000000109216686590     -0.0000000112850548901     -0.0000000072338079027     0.0000000024273509082     0.0000000176680256095     0.0000000370085486856     0.0000000574996531971     0.0000000749519591576     0.0000000845822616244     0.0000000821986069273     0.0000000657514385116     0.0000000366473149584     0.0000000000013238771 
    0.0000000000016420052     -0.0000000220660435941     -0.0000000390080445101     -0.0000000473864690282     -0.0000000463121488577     -0.0000000372402603687     -0.0000000231033077644     -0.0000000073753814266     0.0000000066085336357     0.0000000161294916280     0.0000000195665234817     0.0000000169346128502     0.0000000101750021950     0.0000000026811467006     -0.0000000020672262140     -0.0000000026081386660     0.0000000000008975157     0.0000000026102171609     0.0000000020700511039     -0.0000000026773941239     -0.0000000101704425864     -0.0000000169295895965     -0.0000000195614700929     -0.0000000161247653474     -0.0000000066043198330     0.0000000073790721243     0.0000000231065849149     0.0000000372432886573     0.0000000463150962888     0.0000000473894686230     0.0000000390111659857     0.0000000220692808382     0.0000000000016420052 
    0.0000000000019146744     -0.0000000095451887930     -0.0000000156639408915     -0.0000000161589464745     -0.0000000106240287108     -0.0000000001970438962     0.0000000130318818121     0.0000000264309750775     0.0000000369642188181     0.0000000414508915838     0.0000000374555606109     0.0000000248527572168     0.0000000087779056025     -0.0000000071554709384     -0.0000000163169537376     -0.0000000130804734315     0.0000000000009539799     0.0000000130827490300     0.0000000163202024590     0.0000000071599489808     -0.0000000087723918118     -0.0000000248467838882     -0.0000000374497495082     -0.0000000414456228562     -0.0000000369596398037     -0.0000000264270202320     -0.0000000130283616887     0.0000000002003522446     0.0000000106273227536     0.0000000161623657592     0.0000000156675466248     0.0000000095489551675     0.0000000000019146744 
    0.0000000000021067131     0.0000000011465899330     0.0000000046038696030     0.0000000117414791035     0.0000000226533518331     0.0000000364616601966     0.0000000516585318244     0.0000000659429224185     0.0000000756985227065     0.0000000760171526226     0.0000000634572959332     0.0000000422657841358     0.0000000062986712579     -0.0000000322346666862     -0.0000000511357258047     -0.0000000377246166832     0.0000000000003932339     0.0000000377258490400     0.0000000511381493082     0.0000000322386350694     -0.0000000062933052235     -0.0000000422595971057     -0.0000000634510786579     -0.0000000760115731049     -0.0000000756937364691     -0.0000000659388215840     -0.0000000516548745529     -0.0000000364581808986     -0.0000000226498303383     -0.0000000117377721365     -0.0000000045999252644     -0.0000000011424512643     0.0000000000021067131 
    0.0000000000021903965     0.0000000102313916475     0.0000000221168795487     0.0000000365891697255     0.0000000537110635010     0.0000000729948450896     0.0000000933983119801     0.0000001124002358537     0.0000001245816034227     0.0000001230680880140     0.0000001125380199789     0.0000000667778506415     -0.0000000130946958810     -0.0000000908066600313     -0.0000001218708230792     -0.0000000853081447280     -0.0000000000007204742     0.0000000853071982095     0.0000001218712142265     0.0000000908088449634     0.0000000130986334967     -0.0000000667726450677     -0.0000001125322902057     -0.0000001230626059002     -0.0000001245768638675     -0.0000001123961635500     -0.0000000933946603327     -0.0000000729913358449     -0.0000000537074687126     -0.0000000365853487054     -0.0000000221127908109     -0.0000000102270911304     0.0000000000021903965 
    0.0000000000021451822     0.0000000178759127568     0.0000000371056238019     0.0000000585383710407     0.0000000825383074969     0.0000001092481305986     0.0000001380754645709     0.0000001657115034686     0.0000001834657284866     0.0000001995256530288     0.0000001789540125592     0.0000000834514523853     -0.0000000645596236979     -0.0000001961130999884     -0.0000002381387615818     -0.0000001608260129554     -0.0000000000020616051     0.0000001608223798517     0.0000002381364754416     0.0000001961126914753     0.0000000645611984412     -0.0000000834481987645     -0.0000001789496836506     -0.0000001995209765116     -0.0000001834613713389     -0.0000001657076960841     -0.0000001380720068797     -0.0000001092447689554     -0.0000000825348279133     -0.0000000585346457093     -0.0000000371016236456     -0.0000000178717013743     0.0000000000021451822 
    0.0000000000019581024     0.0000000241891679203     0.0000000496929707340     0.0000000775607776571     0.0000001087565435660     0.0000001442976670657     0.0000001840637834933     0.0000002234361004016     0.0000002610800112367     0.0000002971251360074     0.0000002479425432111     0.0000000812060024921     -0.0000001534905594091     -0.0000003480238635404     -0.0000003966874237059     -0.0000002613837897479     -0.0000000000031477467     0.0000002613779201318     0.0000003966827465440     0.0000003480209225655     0.0000001534896002284     -0.0000000812050621481     -0.0000002479400982599     -0.0000002971218010245     -0.0000002610764522311     -0.0000002234328178876     -0.0000001840607360411     -0.0000001442946577118     -0.0000001087533945523     -0.0000000775573851246     -0.0000000496893194358     -0.0000000241853231094     0.0000000000019581024 
    0.0000000000016274328     0.0000000292138892207     0.0000000598663310737     0.0000000933809509366     0.0000001314974711305     0.0000001762438013614     0.0000002279653026359     0.0000002803755405555     0.0000003534080880149     0.0000003974481976918     0.0000003070191296109     0.0000000581299271222     -0.0000002698837197344     -0.0000005279404144129     -0.0000005776558501782     -0.0000003742647641152     -0.0000000000035465704     0.0000003742579895954     0.0000005776499871995     0.0000005279359435064     0.0000002698809636536     -0.0000000581308642806     -0.0000003070184273580     -0.0000003974463068874     -0.0000003534055978946     -0.0000002803729959553     -0.0000002279628667770     -0.0000001762413482512     -0.0000001314948734834     -0.0000000933781356690     -0.0000000598632953656     -0.0000000292106928689     0.0000000000016274328 
    0.0000000000011674529     0.0000000329159359019     0.0000000674568544735     0.0000001054585158564     0.0000001494277044070     0.0000002023460469580     0.0000002649505639288     0.0000003326964283455     0.0000004392801306631     0.0000004828227932125     0.0000003491937902678     0.0000000231065652406     -0.0000003887914431590     -0.0000007011139446892     -0.0000007476113544297     -0.0000004790484908430     -0.0000000000030547485     0.0000004790425806571     0.0000007476060278183     0.0000007011095537607     0.0000003887882884229     -0.0000000231082996200     -0.0000003491941325939     -0.0000004828220198050     -0.0000004392786787562     -0.0000003326947403392     -0.0000002649488833440     -0.0000002023443190464     -0.0000001494258533890     -0.0000001054564989232     -0.0000000674546761140     -0.0000000329136424589     0.0000000000011674529 
    0.0000000000006098620     0.0000000352027943659     0.0000000721874810335     0.0000001131046246056     0.0000001610225140304     0.0000002196053156521     0.0000002898453971669     0.0000003727952829306     0.0000004995880936999     0.0000005395404067712     0.0000003732207550941     -0.0000000080257882753     -0.0000004782168440842     -0.0000008269084821235     -0.0000008691836239175     -0.0000005534383976326     -0.0000000000017613069     0.0000005534349671612     0.0000008691804687007     0.0000008269057862306     0.0000004782147876716     0.0000000080245068019     -0.0000003732212388034     -0.0000005395402177647     -0.0000004995874634637     -0.0000003727944597055     -0.0000002898445450721     -0.0000002196044251452     -0.0000001610215517590     -0.0000001131035719998     -0.0000000721863428809     -0.0000000352015961282     0.0000000000006098620 
    0.0000000000000000000     0.0000000359781779177     0.0000000737991525588     0.0000001157304415019     0.0000001650461763753     0.0000002256582157069     0.0000002986464848610     0.0000003877454855309     0.0000005212350736308     0.0000005593452067024     0.0000003808526453412     -0.0000000204136511516     -0.0000005114750653512     -0.0000008729416807294     -0.0000009133402620570     -0.0000005803562934814     0.0000000000000000000     0.0000005803562934814     0.0000009133402620570     0.0000008729416807294     0.0000005114750653512     0.0000000204136511516     -0.0000003808526453412     -0.0000005593452067024     -0.0000005212350736308     -0.0000003877454855309     -0.0000002986464848610     -0.0000002256582157069     -0.0000001650461763753     -0.0000001157304415019     -0.0000000737991525588     -0.0000000359781779177     0.0000000000000000000 
    -0.0000000000006098620     0.0000000352015961282     0.0000000721863428809     0.0000001131035719998     0.0000001610215517590     0.0000002196044251452     0.0000002898445450721     0.0000003727944597055     0.0000004995874634637     0.0000005395402177647     0.0000003732212388034     -0.0000000080245068019     -0.0000004782147876716     -0.0000008269057862306     -0.0000008691804687007     -0.0000005534349671612     0.0000000000017613069     0.0000005534383976326     0.0000008691836239175     0.0000008269084821235     0.0000004782168440842     0.0000000080257882753     -0.0000003732207550941     -0.0000005395404067712     -0.0000004995880936999     -0.0000003727952829306     -0.0000002898453971669     -0.0000002196053156521     -0.0000001610225140304     -0.0000001131046246056     -0.0000000721874810335     -0.0000000352027943659     -0.0000000000006098620 
    -0.0000000000011674529     0.0000000329136424589     0.0000000674546761140     0.0000001054564989232     0.0000001494258533890     0.0000002023443190464     0.0000002649488833440     0.0000003326947403392     0.0000004392786787562     0.0000004828220198050     0.0000003491941325939     0.0000000231082996200     -0.0000003887882884229     -0.0000007011095537607     -0.0000007476060278183     -0.0000004790425806571     0.0000000000030547485     0.0000004790484908430     0.0000007476113544297     0.0000007011139446892     0.0000003887914431590     -0.0000000231065652406     -0.0000003491937902678     -0.0000004828227932125     -0.0000004392801306631     -0.0000003326964283455     -0.0000002649505639288     -0.0000002023460469580     -0.0000001494277044070     -0.0000001054585158564     -0.0000000674568544735     -0.0000000329159359019     -0.0000000000011674529 
    -0.0000000000016274328     0.0000000292106928689     0.0000000598632953656     0.0000000933781356690     0.0000001314948734834     0.0000001762413482512     0.0000002279628667770     0.0000002803729959553     0.0000003534055978946     0.0000003974463068874     0.0000003070184273580     0.0000000581308642806     -0.0000002698809636536     -0.0000005279359435064     -0.0000005776499871995     -0.0000003742579895954     0.0000000000035465704     0.0000003742647641152     0.0000005776558501782     0.0000005279404144129     0.0000002698837197344     -0.0000000581299271222     -0.0000003070191296109     -0.0000003974481976918     -0.0000003534080880149     -0.0000002803755405555     -0.0000002279653026359     -0.0000001762438013614     -0.0000001314974711305     -0.0000000933809509366     -0.0000000598663310737     -0.0000000292138892207     -0.0000000000016274328 
    -0.0000000000019581024     0.0000000241853231094     0.0000000496893194358     0.0000000775573851246     0.0000001087533945523     0.0000001442946577118     0.0000001840607360411     0.0000002234328178876     0.0000002610764522311     0.0000002971218010245     0.0000002479400982599     0.0000000812050621481     -0.0000001534896002284     -0.0000003480209225655     -0.0000003966827465440     -0.0000002613779201318     0.0000000000031477467     0.0000002613837897479     0.0000003966874237059     0.0000003480238635404     0.0000001534905594091     -0.0000000812060024921     -0.0000002479425432111     -0.0000002971251360074     -0.0000002610800112367     -0.0000002234361004016     -0.0000001840637834933     -0.0000001442976670657     -0.0000001087565435660     -0.0000000775607776571     -0.0000000496929707340     -0.0000000241891679203     -0.0000000000019581024 
    -0.0000000000021451822     0.0000000178717013743     0.0000000371016236456     0.0000000585346457093     0.0000000825348279133     0.0000001092447689554     0.0000001380720068797     0.0000001657076960841     0.0000001834613713389     0.0000001995209765116     0.0000001789496836506     0.0000000834481987645     -0.0000000645611984412     -0.0000001961126914753     -0.0000002381364754416     -0.0000001608223798517     0.0000000000020616051     0.0000001608260129554     0.0000002381387615818     0.0000001961130999884     0.0000000645596236979     -0.0000000834514523853     -0.0000001789540125592     -0.0000001995256530288     -0.0000001834657284866     -0.0000001657115034686     -0.0000001380754645709     -0.0000001092481305986     -0.0000000825383074969     -0.0000000585383710407     -0.0000000371056238019     -0.0000000178759127568     -0.0000000000021451822 
    -0.0000000000021903965     0.0000000102270911304     0.0000000221127908109     0.0000000365853487054     0.0000000537074687126     0.0000000729913358449     0.0000000933946603327     0.0000001123961635500     0.0000001245768638675     0.0000001230626059002     0.0000001125322902057     0.0000000667726450677     -0.0000000130986334967     -0.0000000908088449634     -0.0000001218712142265     -0.0000000853071982095     0.0000000000007204742     0.0000000853081447280     0.0000001218708230792     0.0000000908066600313     0.0000000130946958810     -0.0000000667778506415     -0.0000001125380199789     -0.0000001230680880140     -0.0000001245816034227     -0.0000001124002358537     -0.0000000933983119801     -0.0000000729948450896     -0.0000000537110635010     -0.0000000365891697255     -0.0000000221168795487     -0.0000000102313916475     -0.0000000000021903965 
    -0.0000000000021067131     0.0000000011424512643     0.0000000045999252644     0.0000000117377721365     0.0000000226498303383     0.0000000364581808986     0.0000000516548745529     0.0000000659388215840     0.0000000756937364691     0.0000000760115731049     0.0000000634510786579     0.0000000422595971057     0.0000000062933052235     -0.0000000322386350694     -0.0000000511381493082     -0.0000000377258490400     -0.0000000000003932339     0.0000000377246166832     0.0000000511357258047     0.0000000322346666862     -0.0000000062986712579     -0.0000000422657841358     -0.0000000634572959332     -0.0000000760171526226     -0.0000000756985227065     -0.0000000659429224185     -0.0000000516585318244     -0.0000000364616601966     -0.0000000226533518331     -0.0000000117414791035     -0.0000000046038696030     -0.0000000011465899330     -0.0000000000021067131 
    -0.0000000000019146744     -0.0000000095489551675     -0.0000000156675466248     -0.0000000161623657592     -0.0000000106273227536     -0.0000000002003522446     0.0000000130283616887     0.0000000264270202320     0.0000000369596398037     0.0000000414456228562     0.0000000374497495082     0.0000000248467838882     0.0000000087723918118     -0.0000000071599489808     -0.0000000163202024590     -0.0000000130827490300     -0.0000000000009539799     0.0000000130804734315     0.0000000163169537376     0.0000000071554709384     -0.0000000087779056025     -0.0000000248527572168     -0.0000000374555606109     -0.0000000414508915838     -0.0000000369642188181     -0.0000000264309750775     -0.0000000130318818121     0.0000000001970438962     0.0000000106240287108     0.0000000161589464745     0.0000000156639408915     0.0000000095451887930     -0.0000000000019146744 
    -0.0000000000016420052     -0.0000000220692808382     -0.0000000390111659857     -0.0000000473894686230     -0.0000000463150962888     -0.0000000372432886573     -0.0000000231065849149     -0.0000000073790721243     0.0000000066043198330     0.0000000161247653474     0.0000000195614700929     0.0000000169295895965     0.0000000101704425864     0.0000000026773941239     -0.0000000020700511039     -0.0000000026102171609     -0.0000000000008975157     0.0000000026081386660     0.0000000020672262140     -0.0000000026811467006     -0.0000000101750021950     -0.0000000169346128502     -0.0000000195665234817     -0.0000000161294916280     -0.0000000066085336357     0.0000000073753814266     0.0000000231033077644     0.0000000372402603687     0.0000000463121488577     0.0000000473864690282     0.0000000390080445101     0.0000000220660435941     -0.0000000000016420052 
    -0.0000000000013238771     -0.0000000366473149584     -0.0000000657514385116     -0.0000000821986069273     -0.0000000845822616244     -0.0000000749519591576     -0.0000000574996531971     -0.0000000370085486856     -0.0000000176680256095     -0.0000000024273509082     0.0000000072338079027     0.0000000112850548901     0.0000000109216686590     0.0000000080801320278     0.0000000047021939394     0.0000000019819867891     -0.0000000000004348942     -0.0000000019830876326     -0.0000000047039214908     -0.0000000080827001388     -0.0000000109250505891     -0.0000000112890113179     -0.0000000072379911745     0.0000000024232709674     0.0000000176642729533     0.0000000370052123972     0.0000000574967052626     0.0000000749492940855     0.0000000845797422520     0.0000000821961091910     0.0000000657488866714     0.0000000366446960501     -0.0000000000013238771 
    -0.0000000000009993123     -0.0000000533386866713     -0.0000000958978028121     -0.0000001204554750311     -0.0000001251882511108     -0.0000001132067231875     -0.0000000904964979626     -0.0000000635583689552     -0.0000000377254798442     -0.0000000164461026216     -0.0000000013050400124     0.0000000075940557551     0.0000000111534875106     0.0000000108121210589     0.0000000080968502779     0.0000000042419420088     -0.0000000000000409863     -0.0000000042422201412     -0.0000000080976688172     -0.0000000108136905256     -0.0000000111558340579     -0.0000000075970275251     0.0000000013017104104     0.0000000164427088118     0.0000000377222629713     0.0000000635554718472     0.0000000904939549262     0.0000001132044787021     0.0000001251861987911     0.0000001204535046953     0.0000000958958383001     0.0000000533367000510     -0.0000000000009993123 
    -0.0000000000007029794     -0.0000000716822087832     -0.0000001285729893165     -0.0000001609934200632     -0.0000001669091606868     -0.0000001510343047093     -0.0000001216766080651     -0.0000000873521364086     -0.0000000546175920757     -0.0000000274172036822     -0.0000000074362016075     0.0000000052117746340     0.0000000113785220984     0.0000000124454996370     0.0000000099818054674     0.0000000054458977273     0.0000000000001907075     -0.0000000054456759886     -0.0000000099820286552     -0.0000000124463568140     -0.0000000113800650287     -0.0000000052139127415     0.0000000074336665637     0.0000000274145166754     0.0000000546149800101     0.0000000873497584621     0.0000001216745316974     0.0000001510325107081     0.0000001669075736079     0.0000001609919506942     0.0000001285715689743     0.0000000716808013640     -0.0000000000007029794 
    -0.0000000000004567589     -0.0000000903205254925     -0.0000001613959792481     -0.0000002009588060897     -0.0000002070056299747     -0.0000001862679811227     -0.0000001496932351614     -0.0000001079022717838     -0.0000000685867565568     -0.0000000360483906342     -0.0000000119662362703     0.0000000036212680504     0.0000000116340788614     0.0000000135633880188     0.0000000111710098853     0.0000000061718221039     0.0000000000002751294     -0.0000000061713936859     -0.0000000111709231625     -0.0000000135637951568     -0.0000000116350334941     -0.0000000036227174213     0.0000000119644320014     0.0000000360464179185     0.0000000685848001127     0.0000001079004725829     0.0000001496916657126     0.0000001862666442082     0.0000002070044796180     0.0000002009577794787     0.0000001613950224487     0.0000000903196021684     -0.0000000000004567589 
    -0.0000000000002658487     -0.0000001068938410592     -0.0000001903328865560     -0.0000002356974955884     -0.0000002411909869577     -0.0000002156033453734     -0.0000001724036605657     -0.0000001240978948737     -0.0000000792874747327     -0.0000000424683012343     -0.0000000152203246075     0.0000000025450874869     0.0000000118549176602     0.0000000143399333438     0.0000000119580197896     0.0000000066386513004     0.0000000000002480328     -0.0000000066382378008     -0.0000000119578383996     -0.0000000143400893446     -0.0000000118554517178     -0.0000000025459696955     0.0000000152191835210     0.0000000424670247037     0.0000000792861889986     0.0000001240967005783     0.0000001724026149774     0.0000002156024599009     0.0000002411902393499     0.0000002356968492899     0.0000001903323061460     0.0000001068932974560     -0.0000000000002658487 
    -0.0000000000001203405     -0.0000001185012194763     -0.0000002104854085070     -0.0000002596655001328     -0.0000002644761868118     -0.0000002352720801717     -0.0000001873641183187     -0.0000001345763956659     -0.0000000860945741695     -0.0000000464898184117     -0.0000000172279993638     0.0000000018951491675     0.0000000119959770092     0.0000000148086015426     0.0000000124249626079     0.0000000069126292188     0.0000000000001443621     -0.0000000069123822874     -0.0000000124248331916     -0.0000000148086431275     -0.0000000119962108031     -0.0000000018955612611     0.0000000172274524653     0.0000000464891975156     0.0000000860939421813     0.0000001345758038027     0.0000001873635974100     0.0000002352716391848     0.0000002644758181674     0.0000002596651882025     0.0000002104851362933     0.0000001185009708905     -0.0000000000001203405 
    0.0000000000000000000     -0.0000001226918277249     -0.0000002177409854199     -0.0000002682550335867     -0.0000002727679701953     -0.0000002422212818917     -0.0000001926038664076     -0.0000001382144187626     -0.0000000884393915406     -0.0000000478661449884     -0.0000000179115914439     0.0000000016747471186     0.0000000120435195377     0.0000000149661942479     0.0000000125814847424     0.0000000070042237522     0.0000000000000000000     -0.0000000070042237522     -0.0000000125814847424     -0.0000000149661942479     -0.0000000120435195377     -0.0000000016747471186     0.0000000179115914439     0.0000000478661449884     0.0000000884393915406     0.0000001382144187626     0.0000001926038664076     0.0000002422212818917     0.0000002727679701953     0.0000002682550335867     0.0000002177409854199     0.0000001226918277249     0.0000000000000000000 
    0.0000000000000000000     -0.0000000785514627923     -0.0000001415100978805     -0.0000001787786525740     -0.0000001883204880285     -0.0000001749671514205     -0.0000001469789092750     -0.0000001126484545025     -0.0000000783594581223     -0.0000000481706454121     -0.0000000242292737754     -0.0000000073131448600     0.0000000028022253801     0.0000000070947246486     0.0000000070168330410     0.0000000041615764229     -0.0000000000000000000     -0.0000000041615764229     -0.0000000070168330410     -0.0000000070947246486     -0.0000000028022253801     0.0000000073131448600     0.0000000242292737754     0.0000000481706454121     0.0000000783594581223     0.0000001126484545025     0.0000001469789092750     0.0000001749671514205     0.0000001883204880285     0.0000001787786525740     0.0000001415100978805     0.0000000785514627923     0.0000000000000000000 
    0.0000000000002606026     -0.0000000761262353578     -0.0000001372690597376     -0.0000001736610958133     -0.0000001832208838622     -0.0000001704790613208     -0.0000001433491847736     -0.0000001098823449864     -0.0000000763559734235     -0.0000000468062075875     -0.0000000233802557584     -0.0000000068519202926     0.0000000030047778396     0.0000000071534575232     0.0000000070161218880     0.0000000041507529840     -0.0000000000001051360     -0.0000000041509187476     -0.0000000070161637774     -0.0000000071533220063     -0.0000000030044456302     0.0000000068524346212     0.0000000233809109347     0.0000000468069468462     0.0000000763567377080     0.0000001098830859558     0.0000001433498741452     0.0000001704796929095     0.0000001832214675559     0.0000001736616474112     0.0000001372695929311     0.0000000761267593674     0.0000000000002606026 
    0.0000000000005332294     -0.0000000693730114099     -0.0000001254135758265     -0.0000001592648638708     -0.0000001687543132001     -0.0000001576228634256     -0.0000001328485819878     -0.0000001018094541641     -0.0000000704668927922     -0.0000000427708968657     -0.0000000208517092790     -0.0000000054626359129     0.0000000036302129066     0.0000000073502191878     0.0000000070308933809     0.0000000041277439456     -0.0000000000001731353     -0.0000000041280017745     -0.0000000070309049409     -0.0000000073498780289     -0.0000000036294814979     0.0000000054637262168     0.0000000208530727983     0.0000000427724173121     0.0000000704684511162     0.0000001018109551584     0.0000001328499725049     0.0000001576241353882     0.0000001687554904108     0.0000001592659807543     0.0000001254146607881     0.0000000693740819645     0.0000000000005332294 
    0.0000000000008274653     -0.0000000596043264126     -0.0000001081310980726     -0.0000001380141524565     -0.0000001470442431747     -0.0000001379587101067     -0.0000001164718020563     -0.0000000889918502761     -0.0000000609687258029     -0.0000000361624259444     -0.0000000166314249361     -0.0000000030738909715     0.0000000047673567752     0.0000000077617633689     0.0000000071123157626     0.0000000041168815467     -0.0000000000001667159     -0.0000000041170832733     -0.0000000071121512351     -0.0000000077610764265     -0.0000000047660973359     0.0000000030756670634     0.0000000166335806066     0.0000000361647827400     0.0000000609711082825     0.0000000889941249346     0.0000001164739009393     0.0000001379606315189     0.0000001470460299315     0.0000001380158597851     0.0000001081327689207     0.0000000596059842640     0.0000000000008274653 
    0.0000000000011468842     -0.0000000483430290273     -0.0000000879790236146     -0.0000001127779740603     -0.0000001206414419451     -0.0000001133823105616     -0.0000000954160814888     -0.0000000720521870262     -0.0000000480702801221     -0.0000000269117577732     -0.0000000104855654545     0.0000000006070224545     0.0000000066758474762     0.0000000085613053452     0.0000000073449223833     0.0000000041456179494     -0.0000000000000451726     -0.0000000041455333628     -0.0000000073443537848     -0.0000000085600548149     -0.0000000066738670949     -0.0000000006044100645     0.0000000104886091668     0.0000000269149924856     0.0000000480734878936     0.0000000720552175026     0.0000000954188718389     0.0000001133848775383     0.0000001206438509619     0.0000001127802996565     0.0000000879813200420     0.0000000483453217283     0.0000000000011468842 
    0.0000000000014851938     -0.0000000367953261174     -0.0000000670153366981     -0.0000000859211052397     -0.0000000917046531407     -0.0000000855194351083     -0.0000000706587215602     -0.0000000513486911693     -0.0000000316087054847     -0.0000000144705955105     -0.0000000016579494647     0.0000000063357392885     0.0000000099280169472     0.0000000100548410600     0.0000000078146793532     0.0000000042054042173     0.0000000000002288139     -0.0000000042047270275     -0.0000000078134004820     -0.0000000100527334658     -0.0000000099250594998     -0.0000000063321002153     0.0000000016619878669     0.0000000144747342173     0.0000000316127079218     0.0000000513524234472     0.0000000706621545519     0.0000000855226193456     0.0000000917076791461     0.0000000859240626019     0.0000000670182854628     0.0000000367982886035     0.0000000000014851938 
    0.0000000000018245686     -0.0000000256462822694     -0.0000000464511546860     -0.0000000589056070797     -0.0000000616291988740     -0.0000000554123569264     -0.0000000426793442342     -0.0000000266840015296     -0.0000000107090600879     0.0000000025703817171     0.0000000114965323943     0.0000000155988194868     0.0000000155101941504     0.0000000126104019104     0.0000000084445331700     0.0000000041208653686     0.0000000000006539369     -0.0000000041192896331     -0.0000000084422329531     -0.0000000126071343412     -0.0000000155059933414     -0.0000000155939570678     -0.0000000114913932484     -0.0000000025653208978     0.0000000107138122198     0.0000000266883618653     0.0000000426833465230     0.0000000554161014915     0.0000000616328049271     0.0000000589091761094     0.0000000464547477961     0.0000000256499140570     0.0000000000018245686 
    0.0000000000021379545     -0.0000000151695959578     -0.0000000268193497372     -0.0000000324506970881     -0.0000000311463596692     -0.0000000235293285251     -0.0000000113639277597     0.0000000029006890775     0.0000000165164377330     0.0000000268274405423     0.0000000318066781546     0.0000000307300782758     0.0000000247110394785     0.0000000175282969132     0.0000000102781886564     0.0000000043336068467     0.0000000000009283263     -0.0000000043313793320     -0.0000000102749743716     -0.0000000175238207328     -0.0000000247054711550     -0.0000000307239021410     -0.0000000318003990302     -0.0000000268214714824     -0.0000000165109916615     -0.0000000028957804671     0.0000000113684122055     0.0000000235335498373     0.0000000311504705290     0.0000000324548115055     0.0000000268235284196     0.0000000151738432883     0.0000000000021379545 
    0.0000000000023942147     -0.0000000054555502520     -0.0000000083439004549     -0.0000000069211444808     -0.0000000006318509379     0.0000000100519182314     0.0000000239321433986     0.0000000391520771977     0.0000000530401726516     0.0000000621662343026     0.0000000631713858630     0.0000000586477139960     0.0000000484793365897     0.0000000307515279500     0.0000000132142722002     0.0000000030645604769     0.0000000000005445453     -0.0000000030629771876     -0.0000000132113639942     -0.0000000307468893990     -0.0000000484731143390     -0.0000000586405356540     -0.0000000631641211724     -0.0000000621594788583     -0.0000000530341361199     -0.0000000391467198012     -0.0000000239272807797     -0.0000000100473303262     0.0000000006363525957     0.0000000069256892225     0.0000000083485499594     0.0000000054602987614     0.0000000000023942147 
    0.0000000000025626324     0.0000000034284565605     0.0000000087972767782     0.0000000173892682653     0.0000000296454427316     0.0000000454269873119     0.0000000641461081823     0.0000000842804985594     0.0000001024451410361     0.0000001130041687551     0.0000001225380879348     0.0000001183240878152     0.0000000874787610800     0.0000000423322996485     0.0000000059415942306     -0.0000000067692829727     -0.0000000000006059125     0.0000000067686758311     -0.0000000059405625134     -0.0000000423290669851     -0.0000000874733818604     -0.0000001183171687820     -0.0000001225305492398     -0.0000001129969496050     -0.0000001024387311672     -0.0000000842748535741     -0.0000000641410111330     -0.0000000454221786982     -0.0000000296407040126     -0.0000000173844547578     -0.0000000087923248293     -0.0000000034233804900     0.0000000000025626324 
    0.0000000000026148380     0.0000000114015877079     0.0000000244133953402     0.0000000401846561140     0.0000000594080828919     0.0000000826246443536     0.0000001100232966632     0.0000001401094452083     0.0000001676150217528     0.0000002012911548651     0.0000002267186431668     0.0000002022219841003     0.0000001270516325816     0.0000000361898912731     -0.0000000252884186981     -0.0000000330864061731     -0.0000000000023231282     0.0000000330824209534     0.0000000252862520002     -0.0000000361895276538     -0.0000001270486231821     -0.0000002022167868130     -0.0000002267121074253     -0.0000002012842559694     -0.0000001676086137615     -0.0000001401037767921     -0.0000001100181773414     -0.0000000826198115212     -0.0000000594033052398     -0.0000000401797808990     -0.0000000244083594842     -0.0000000113964125208     0.0000000000026148380 
    0.0000000000025263548     0.0000000183996219685     0.0000000383459896007     0.0000000611855726514     0.0000000882768946474     0.0000001212669892715     0.0000001613558757545     0.0000002067138657645     0.0000002610762025165     0.0000003373829122265     0.0000003625653043870     0.0000002944273509931     0.0000001509128343603     -0.0000000019954238609     -0.0000000908958982063     -0.0000000812943333780     -0.0000000000040992869     0.0000000812867655158     0.0000000908901003222     0.0000000019921997740     -0.0000001509131552218     -0.0000002944249598055     -0.0000003625608478443     -0.0000003373773087151     -0.0000002610703917825     -0.0000002067085382769     -0.0000001613510208190     -0.0000001212623840869     -0.0000000882723219274     -0.0000000611808865258     -0.0000000383411339873     -0.0000000183946240924     0.0000000000025263548 
    0.0000000000022810864     0.0000000243852762166     0.0000000504693398140     0.0000000800733000356     0.0000001155797470274     0.0000001601208242873     0.0000002161092809619     0.0000002812408399548     0.0000003928569615304     0.0000005021405538339     0.0000005103212977490     0.0000003780905318355     0.0000001477285625634     -0.0000000773745429855     -0.0000001915177743884     -0.0000001505385650143     -0.0000000000053127532     0.0000001505284548808     0.0000001915091494466     0.0000000773681994013     -0.0000001477321105013     -0.0000003780911683133     -0.0000005103193792230     -0.0000005021368406958     -0.0000003928523887928     -0.0000002812362484380     -0.0000002161050138682     -0.0000001601167324856     -0.0000001155756545283     -0.0000000800690851717     -0.0000000504649606406     -0.0000000243807643284     0.0000000000022810864 
    0.0000000000018782524     0.0000000293059217937     0.0000000605972653571     0.0000000963308843157     0.0000001401052353296     0.0000001967241593394     0.0000002698660550282     0.0000003690376191567     0.0000005391651922971     0.0000006697739739858     0.0000006484288398310     0.0000004410950455793     0.0000001172287187681     -0.0000001804408155350     -0.0000003140626350495     -0.0000002317088303690     -0.0000000000054962213     0.0000002316981924499     0.0000003140530556660     0.0000001804329756401     -0.0000001172342284823     -0.0000004410978801008     -0.0000006484290765586     -0.0000006697721502385     -0.0000005391621252906     -0.0000003690341226664     -0.0000002698626644053     -0.0000001967208537828     -0.0000001401018958890     -0.0000000963274251472     -0.0000000605936620389     -0.0000000293022068137     0.0000000000018782524 
    0.0000000000013370404     0.0000000330407044938     0.0000000683851192079     0.0000001091260533344     0.0000001600211071155     0.0000002274268270346     0.0000003161237526934     0.0000004567886672648     0.0000006715040768606     0.0000008131440862546     0.0000007585259042005     0.0000004798375871020     0.0000000719045918611     -0.0000002875678678132     -0.0000004335484603468     -0.0000003089747176036     -0.0000000000045054983     0.0000003089659069189     0.0000004335402753635     0.0000002875607939748     -0.0000000719100397061     -0.0000004798410085503     -0.0000007585272107726     -0.0000008131435907173     -0.0000006715023768527     -0.0000004567864089266     -0.0000003161214299208     -0.0000002274245193370     -0.0000001600187501350     -0.0000001091235977487     -0.0000000683825553426     -0.0000000330380599111     0.0000000000013370404 
    0.0000000000006948050     0.0000000354028433226     0.0000000733545838741     0.0000001174161128103     0.0000001731797987455     0.0000002481038509663     0.0000003477098172390     0.0000005210135207097     0.0000007633888574673     0.0000009092167505987     0.0000008284852683593     0.0000004984484508447     0.0000000320977334117     -0.0000003686901535899     -0.0000005208277932333     -0.0000003645944320619     -0.0000000000025295675     0.0000003645894569260     0.0000005208230928925     0.0000003686859771614     -0.0000000321010874414     -0.0000004984507199802     -0.0000008284863537224     -0.0000009092167864726     -0.0000007633881566416     -0.0000005210124405126     -0.0000003477086463746     -0.0000002481026695650     -0.0000001731785816066     -0.0000001174148392130     -0.0000000733532519006     -0.0000000354014689962     0.0000000000006948050 
    0.0000000000000000000     0.0000000362143117522     0.0000000750697696051     0.0000001202989262903     0.0000001777982328234     0.0000002554242335252     0.0000003589579531696     0.0000005445209385845     0.0000007962371543670     0.0000009429624377905     0.0000008523507092350     0.0000005036116191380     0.0000000163479824670     -0.0000003989306522335     -0.0000005528284072206     -0.0000003848437717886     0.0000000000000000000     0.0000003848437717886     0.0000005528284072206     0.0000003989306522335     -0.0000000163479824670     -0.0000005036116191380     -0.0000008523507092350     -0.0000009429624377905     -0.0000007962371543670     -0.0000005445209385845     -0.0000003589579531696     -0.0000002554242335252     -0.0000001777982328234     -0.0000001202989262903     -0.0000000750697696051     -0.0000000362143117522     0.0000000000000000000 
    -0.0000000000006948050     0.0000000354014689962     0.0000000733532519006     0.0000001174148392130     0.0000001731785816066     0.0000002481026695650     0.0000003477086463746     0.0000005210124405126     0.0000007633881566416     0.0000009092167864726     0.0000008284863537224     0.0000004984507199802     0.0000000321010874414     -0.0000003686859771614     -0.0000005208230928925     -0.0000003645894569260     0.0000000000025295675     0.0000003645944320619     0.0000005208277932333     0.0000003686901535899     -0.0000000320977334117     -0.0000004984484508447     -0.0000008284852683593     -0.0000009092167505987     -0.0000007633888574673     -0.0000005210135207097     -0.0000003477098172390     -0.0000002481038509663     -0.0000001731797987455     -0.0000001174161128103     -0.0000000733545838741     -0.0000000354028433226     -0.0000000000006948050 
    -0.0000000000013370404     0.0000000330380599111     0.0000000683825553426     0.0000001091235977487     0.0000001600187501350     0.0000002274245193370     0.0000003161214299208     0.0000004567864089266     0.0000006715023768527     0.0000008131435907173     0.0000007585272107726     0.0000004798410085503     0.0000000719100397061     -0.0000002875607939748     -0.0000004335402753635     -0.0000003089659069189     0.0000000000045054983     0.0000003089747176036     0.0000004335484603468     0.0000002875678678132     -0.0000000719045918611     -0.0000004798375871020     -0.0000007585259042005     -0.0000008131440862546     -0.0000006715040768606     -0.0000004567886672648     -0.0000003161237526934     -0.0000002274268270346     -0.0000001600211071155     -0.0000001091260533344     -0.0000000683851192079     -0.0000000330407044938     -0.0000000000013370404 
    -0.0000000000018782524     0.0000000293022068137     0.0000000605936620389     0.0000000963274251472     0.0000001401018958890     0.0000001967208537828     0.0000002698626644053     0.0000003690341226664     0.0000005391621252906     0.0000006697721502385     0.0000006484290765586     0.0000004410978801008     0.0000001172342284823     -0.0000001804329756401     -0.0000003140530556660     -0.0000002316981924499     0.0000000000054962213     0.0000002317088303690     0.0000003140626350495     0.0000001804408155350     -0.0000001172287187681     -0.0000004410950455793     -0.0000006484288398310     -0.0000006697739739858     -0.0000005391651922971     -0.0000003690376191567     -0.0000002698660550282     -0.0000001967241593394     -0.0000001401052353296     -0.0000000963308843157     -0.0000000605972653571     -0.0000000293059217937     -0.0000000000018782524 
    -0.0000000000022810864     0.0000000243807643284     0.0000000504649606406     0.0000000800690851717     0.0000001155756545283     0.0000001601167324856     0.0000002161050138682     0.0000002812362484380     0.0000003928523887928     0.0000005021368406958     0.0000005103193792230     0.0000003780911683133     0.0000001477321105013     -0.0000000773681994013     -0.0000001915091494466     -0.0000001505284548808     0.0000000000053127532     0.0000001505385650143     0.0000001915177743884     0.0000000773745429855     -0.0000001477285625634     -0.0000003780905318355     -0.0000005103212977490     -0.0000005021405538339     -0.0000003928569615304     -0.0000002812408399548     -0.0000002161092809619     -0.0000001601208242873     -0.0000001155797470274     -0.0000000800733000356     -0.0000000504693398140     -0.0000000243852762166     -0.0000000000022810864 
    -0.0000000000025263548     0.0000000183946240924     0.0000000383411339873     0.0000000611808865258     0.0000000882723219274     0.0000001212623840869     0.0000001613510208190     0.0000002067085382769     0.0000002610703917825     0.0000003373773087151     0.0000003625608478443     0.0000002944249598055     0.0000001509131552218     -0.0000000019921997740     -0.0000000908901003222     -0.0000000812867655158     0.0000000000040992869     0.0000000812943333780     0.0000000908958982063     0.0000000019954238609     -0.0000001509128343603     -0.0000002944273509931     -0.0000003625653043870     -0.0000003373829122265     -0.0000002610762025165     -0.0000002067138657645     -0.0000001613558757545     -0.0000001212669892715     -0.0000000882768946474     -0.0000000611855726514     -0.0000000383459896007     -0.0000000183996219685     -0.0000000000025263548 
    -0.0000000000026148380     0.0000000113964125208     0.0000000244083594842     0.0000000401797808990     0.0000000594033052398     0.0000000826198115212     0.0000001100181773414     0.0000001401037767921     0.0000001676086137615     0.0000002012842559694     0.0000002267121074253     0.0000002022167868130     0.0000001270486231821     0.0000000361895276538     -0.0000000252862520002     -0.0000000330824209534     0.0000000000023231282     0.0000000330864061731     0.0000000252884186981     -0.0000000361898912731     -0.0000001270516325816     -0.0000002022219841003     -0.0000002267186431668     -0.0000002012911548651     -0.0000001676150217528     -0.0000001401094452083     -0.0000001100232966632     -0.0000000826246443536     -0.0000000594080828919     -0.0000000401846561140     -0.0000000244133953402     -0.0000000114015877079     -0.0000000000026148380 
    -0.0000000000025626324     0.0000000034233804900     0.0000000087923248293     0.0000000173844547578     0.0000000296407040126     0.0000000454221786982     0.0000000641410111330     0.0000000842748535741     0.0000001024387311672     0.0000001129969496050     0.0000001225305492398     0.0000001183171687820     0.0000000874733818604     0.0000000423290669851     0.0000000059405625134     -0.0000000067686758311     0.0000000000006059125     0.0000000067692829727     -0.0000000059415942306     -0.0000000423322996485     -0.0000000874787610800     -0.0000001183240878152     -0.0000001225380879348     -0.0000001130041687551     -0.0000001024451410361     -0.0000000842804985594     -0.0000000641461081823     -0.0000000454269873119     -0.0000000296454427316     -0.0000000173892682653     -0.0000000087972767782     -0.0000000034284565605     -0.0000000000025626324 
    -0.0000000000023942147     -0.0000000054602987614     -0.0000000083485499594     -0.0000000069256892225     -0.0000000006363525957     0.0000000100473303262     0.0000000239272807797     0.0000000391467198012     0.0000000530341361199     0.0000000621594788583     0.0000000631641211724     0.0000000586405356540     0.0000000484731143390     0.0000000307468893990     0.0000000132113639942     0.0000000030629771876     -0.0000000000005445453     -0.0000000030645604769     -0.0000000132142722002     -0.0000000307515279500     -0.0000000484793365897     -0.0000000586477139960     -0.0000000631713858630     -0.0000000621662343026     -0.0000000530401726516     -0.0000000391520771977     -0.0000000239321433986     -0.0000000100519182314     0.0000000006318509379     0.0000000069211444808     0.0000000083439004549     0.0000000054555502520     -0.0000000000023942147 
    -0.0000000000021379545     -0.0000000151738432883     -0.0000000268235284196     -0.0000000324548115055     -0.0000000311504705290     -0.0000000235335498373     -0.0000000113684122055     0.0000000028957804671     0.0000000165109916615     0.0000000268214714824     0.0000000318003990302     0.0000000307239021410     0.0000000247054711550     0.0000000175238207328     0.0000000102749743716     0.0000000043313793320     -0.0000000000009283263     -0.0000000043336068467     -0.0000000102781886564     -0.0000000175282969132     -0.0000000247110394785     -0.0000000307300782758     -0.0000000318066781546     -0.0000000268274405423     -0.0000000165164377330     -0.0000000029006890775     0.0000000113639277597     0.0000000235293285251     0.0000000311463596692     0.0000000324506970881     0.0000000268193497372     0.0000000151695959578     -0.0000000000021379545 
    -0.0000000000018245686     -0.0000000256499140570     -0.0000000464547477961     -0.0000000589091761094     -0.0000000616328049271     -0.0000000554161014915     -0.0000000426833465230     -0.0000000266883618653     -0.0000000107138122198     0.0000000025653208978     0.0000000114913932484     0.0000000155939570678     0.0000000155059933414     0.0000000126071343412     0.0000000084422329531     0.0000000041192896331     -0.0000000000006539369     -0.0000000041208653686     -0.0000000084445331700     -0.0000000126104019104     -0.0000000155101941504     -0.0000000155988194868     -0.0000000114965323943     -0.0000000025703817171     0.0000000107090600879     0.0000000266840015296     0.0000000426793442342     0.0000000554123569264     0.0000000616291988740     0.0000000589056070797     0.0000000464511546860     0.0000000256462822694     -0.0000000000018245686 
    -0.0000000000014851938     -0.0000000367982886035     -0.0000000670182854628     -0.0000000859240626019     -0.0000000917076791461     -0.0000000855226193456     -0.0000000706621545519     -0.0000000513524234472     -0.0000000316127079218     -0.0000000144747342173     -0.0000000016619878669     0.0000000063321002153     0.0000000099250594998     0.0000000100527334658     0.0000000078134004820     0.0000000042047270275     -0.0000000000002288139     -0.0000000042054042173     -0.0000000078146793532     -0.0000000100548410600     -0.0000000099280169472     -0.0000000063357392885     0.0000000016579494647     0.0000000144705955105     0.0000000316087054847     0.0000000513486911693     0.0000000706587215602     0.0000000855194351083     0.0000000917046531407     0.0000000859211052397     0.0000000670153366981     0.0000000367953261174     -0.0000000000014851938 
    -0.0000000000011468842     -0.0000000483453217283     -0.0000000879813200420     -0.0000001127802996565     -0.0000001206438509619     -0.0000001133848775383     -0.0000000954188718389     -0.0000000720552175026     -0.0000000480734878936     -0.0000000269149924856     -0.0000000104886091668     0.0000000006044100645     0.0000000066738670949     0.0000000085600548149     0.0000000073443537848     0.0000000041455333628     0.0000000000000451726     -0.0000000041456179494     -0.0000000073449223833     -0.0000000085613053452     -0.0000000066758474762     -0.0000000006070224545     0.0000000104855654545     0.0000000269117577732     0.0000000480702801221     0.0000000720521870262     0.0000000954160814888     0.0000001133823105616     0.0000001206414419451     0.0000001127779740603     0.0000000879790236146     0.0000000483430290273     -0.0000000000011468842 
    -0.0000000000008274653     -0.0000000596059842640     -0.0000001081327689207     -0.0000001380158597851     -0.0000001470460299315     -0.0000001379606315189     -0.0000001164739009393     -0.0000000889941249346     -0.0000000609711082825     -0.0000000361647827400     -0.0000000166335806066     -0.0000000030756670634     0.0000000047660973359     0.0000000077610764265     0.0000000071121512351     0.0000000041170832733     0.0000000000001667159     -0.0000000041168815467     -0.0000000071123157626     -0.0000000077617633689     -0.0000000047673567752     0.0000000030738909715     0.0000000166314249361     0.0000000361624259444     0.0000000609687258029     0.0000000889918502761     0.0000001164718020563     0.0000001379587101067     0.0000001470442431747     0.0000001380141524565     0.0000001081310980726     0.0000000596043264126     -0.0000000000008274653 
    -0.0000000000005332294     -0.0000000693740819645     -0.0000001254146607881     -0.0000001592659807543     -0.0000001687554904108     -0.0000001576241353882     -0.0000001328499725049     -0.0000001018109551584     -0.0000000704684511162     -0.0000000427724173121     -0.0000000208530727983     -0.0000000054637262168     0.0000000036294814979     0.0000000073498780289     0.0000000070309049409     0.0000000041280017745     0.0000000000001731353     -0.0000000041277439456     -0.0000000070308933809     -0.0000000073502191878     -0.0000000036302129066     0.0000000054626359129     0.0000000208517092790     0.0000000427708968657     0.0000000704668927922     0.0000001018094541641     0.0000001328485819878     0.0000001576228634256     0.0000001687543132001     0.0000001592648638708     0.0000001254135758265     0.0000000693730114099     -0.0000000000005332294 
    -0.0000000000002606026     -0.0000000761267593674     -0.0000001372695929311     -0.0000001736616474112     -0.0000001832214675559     -0.0000001704796929095     -0.0000001433498741452     -0.0000001098830859558     -0.0000000763567377080     -0.0000000468069468462     -0.0000000233809109347     -0.0000000068524346212     0.0000000030044456302     0.0000000071533220063     0.0000000070161637774     0.0000000041509187476     0.0000000000001051360     -0.0000000041507529840     -0.0000000070161218880     -0.0000000071534575232     -0.0000000030047778396     0.0000000068519202926     0.0000000233802557584     0.0000000468062075875     0.0000000763559734235     0.0000001098823449864     0.0000001433491847736     0.0000001704790613208     0.0000001832208838622     0.0000001736610958133     0.0000001372690597376     0.0000000761262353578     -0.0000000000002606026 
    0.0000000000000000000     -0.0000000785514627923     -0.0000001415100978805     -0.0000001787786525740     -0.0000001883204880285     -0.0000001749671514205     -0.0000001469789092750     -0.0000001126484545025     -0.0000000783594581223     -0.0000000481706454121     -0.0000000242292737754     -0.0000000073131448600     0.0000000028022253801     0.0000000070947246486     0.0000000070168330410     0.0000000041615764229     -0.0000000000000000000     -0.0000000041615764229     -0.0000000070168330410     -0.0000000070947246486     -0.0000000028022253801     0.0000000073131448600     0.0000000242292737754     0.0000000481706454121     0.0000000783594581223     0.0000001126484545025     0.0000001469789092750     0.0000001749671514205     0.0000001883204880285     0.0000001787786525740     0.0000001415100978805     0.0000000785514627923     0.0000000000000000000 
    -0.0000000000000000000     -0.0000000497114431496     -0.0000000906670660650     -0.0000001168656613341     -0.0000001264615880884     -0.0000001213907791763     -0.0000001058449124727     -0.0000000845956027149     -0.0000000618387806916     -0.0000000406869982830     -0.0000000231076158253     -0.0000000100582491656     -0.0000000016723845782     0.0000000025438157855     0.0000000034961628343     0.0000000022789225270     0.0000000000000000000     -0.0000000022789225270     -0.0000000034961628343     -0.0000000025438157855     0.0000000016723845782     0.0000000100582491656     0.0000000231076158253     0.0000000406869982830     0.0000000618387806916     0.0000000845956027149     0.0000001058449124727     0.0000001213907791763     0.0000001264615880884     0.0000001168656613341     0.0000000906670660650     0.0000000497114431496     -0.0000000000000000000 
    0.0000000000003641267     -0.0000000483102390977     -0.0000000881922869697     -0.0000001138233967833     -0.0000001233382802977     -0.0000001185195741954     -0.0000001033841515175     -0.0000000825847388052     -0.0000000602648700082     -0.0000000395191136019     -0.0000000222995581917     -0.0000000095438866725     -0.0000000013721800620     0.0000000027058694284     0.0000000035772517051     0.0000000023124677489     -0.0000000000000788613     -0.0000000023125782412     -0.0000000035772322230     -0.0000000027056670168     0.0000000013725824439     0.0000000095444743393     0.0000000223002931873     0.0000000395199437280     0.0000000602657390425     0.0000000825855986799     0.0000001033849732357     0.0000001185203517369     0.0000001233390248761     0.0000001138241253092     0.0000000881930121846     0.0000000483109661142     0.0000000000003641267 
    0.0000000000007302550     -0.0000000443859060531     -0.0000000812266525658     -0.0000001051930261831     -0.0000001143886641854     -0.0000001102020503738     -0.0000000961832193313     -0.0000000766528347597     -0.0000000555936430486     -0.0000000360331950679     -0.0000000198690623816     -0.0000000079772069234     -0.0000000004384697636     0.0000000032263370458     0.0000000038484572514     0.0000000024288132037     -0.0000000000001233193     -0.0000000024289655229     -0.0000000038483497044     -0.0000000032258633196     0.0000000004393433355     0.0000000079784485331     0.0000000198705919817     0.0000000360349044079     0.0000000555954181598     0.0000000766545808002     0.0000000961848812235     0.0000001102036189288     0.0000001143901636277     0.0000001051944911262     0.0000000812281089078     0.0000000443873646001     0.0000000000007302550 
    0.0000000000011008488     -0.0000000386301351906     -0.0000000709111033833     -0.0000000922160123294     -0.0000001006700641793     -0.0000000971842900243     -0.0000000846909719792     -0.0000000670291048821     -0.0000000479075004020     -0.0000000302094674958     -0.0000000157220416388     -0.0000000052177424105     0.0000000012834614616     0.0000000042442400708     0.0000000044117844613     0.0000000026812865955     -0.0000000000000949902     -0.0000000026813350210     -0.0000000044114429727     -0.0000000042433504991     -0.0000000012819783915     0.0000000052197614613     0.0000000157244652023     0.0000000302121261491     0.0000000479102246788     0.0000000670317614964     0.0000000846934894917     0.0000000971866627300     0.0000001006723315518     0.0000000922182261592     0.0000000709133018380     0.0000000386323347878     0.0000000000011008488 
    0.0000000000014766481     -0.0000000318239639408     -0.0000000585442798373     -0.0000000763229255020     -0.0000000834168026000     -0.0000000803378415327     -0.0000000694018590809     -0.0000000538922201355     -0.0000000371369954295     -0.0000000217840476305     -0.0000000094571939299     -0.0000000008028219771     0.0000000042330425567     0.0000000061096227636     0.0000000054977272316     0.0000000031807605360     0.0000000000000501818     -0.0000000031804699475     -0.0000000054969145220     -0.0000000061080835223     -0.0000000042307338456     0.0000000008057971256     0.0000000094606359735     0.0000000217877217976     0.0000000371406880989     0.0000000538957806798     0.0000000694052201073     0.0000000803410126042     0.0000000834198405879     0.0000000763258962991     0.0000000585472304887     0.0000000318269150119     0.0000000000014766481 
    0.0000000000018523024     -0.0000000245597651680     -0.0000000451290361609     -0.0000000586473717309     -0.0000000636288647741     -0.0000000603544301688     -0.0000000506201746791     -0.0000000371386082727     -0.0000000227814017725     -0.0000000099098843364     0.0000000000025694315     0.0000000063957439403     0.0000000093999121172     0.0000000095460435495     0.0000000075376372419     0.0000000041158057117     0.0000000000003459828     -0.0000000041148703170     -0.0000000075360387332     -0.0000000095435401481     -0.0000000093964880250     -0.0000000063915806273     0.0000000000020400262     0.0000000099146357176     0.0000000227860566966     0.0000000371430309949     0.0000000506243315034     0.0000000603583628230     0.0000000636326511611     0.0000000586510883066     0.0000000451327343139     0.0000000245634663581     0.0000000000018523024 
    0.0000000000022130045     -0.0000000171608496128     -0.0000000312388911823     -0.0000000398775834149     -0.0000000419340923977     -0.0000000376132033751     -0.0000000282955671914     -0.0000000161386078092     -0.0000000035565429324     0.0000000072921162086     0.0000000148980260358     0.0000000186086713028     0.0000000186232958692     0.0000000157763552163     0.0000000111761686612     0.0000000058127388746     0.0000000000007509235     -0.0000000058109182750     -0.0000000111735008550     -0.0000000157725868800     -0.0000000186184684346     -0.0000000186030842729     -0.0000000148920977138     -0.0000000072862282830     0.0000000035621447069     0.0000000161438336524     0.0000000283004465554     0.0000000376178286214     0.0000000419385693700     0.0000000398819991326     0.0000000312432990212     0.0000000171652689278     0.0000000000022130045 
    0.0000000000025348600     -0.0000000097791694591     -0.0000000171758626638     -0.0000000204207422208     -0.0000000187092952719     -0.0000000122184547957     -0.0000000019462436889     0.0000000104740679613     0.0000000229488109960     0.0000000331733278717     0.0000000390799319812     0.0000000394852949717     0.0000000368635175864     0.0000000312999643858     0.0000000219840016754     0.0000000110399982771     0.0000000000007275565     -0.0000000110380822898     -0.0000000219808508282     -0.0000000312952030650     -0.0000000368572880391     -0.0000000394781934749     -0.0000000390726247859     -0.0000000331662893226     -0.0000000229422944421     -0.0000000104681066616     0.0000000019517564610     0.0000000122236744889     0.0000000187143645312     0.0000000204257638987     0.0000000171808941262     0.0000000097842268536     0.0000000000025348600 
    0.0000000000027886094     -0.0000000025385189749     -0.0000000032025485802     -0.0000000006460009797     0.0000000057308034230     0.0000000158973886278     0.0000000293252518864     0.0000000448607301524     0.0000000603820537014     0.0000000726551127716     0.0000000797850701155     0.0000000869317223286     0.0000000824350413685     0.0000000645432940437     0.0000000406889058050     0.0000000185518472423     -0.0000000000001342896     -0.0000000185514938364     -0.0000000406868699956     -0.0000000645390118316     -0.0000000824285986569     -0.0000000869237840466     -0.0000000797766205324     -0.0000000726470624109     -0.0000000603747306927     -0.0000000448541381363     -0.0000000293192224635     -0.0000000158917061142     -0.0000000057252830672     0.0000000006514851130     0.0000000032080626148     0.0000000025440767802     0.0000000000027886094 
    0.0000000000029437644     0.0000000043960915659     0.0000000103506196015     0.0000000190103730379     0.0000000310454672628     0.0000000468733162358     0.0000000666591167240     0.0000000896691542304     0.0000001131147753825     0.0000001362830271567     0.0000001674148252650     0.0000001775802992720     0.0000001542844613457     0.0000001078087707578     0.0000000590248750902     0.0000000231470745892     -0.0000000000018688356     -0.0000000231500538615     -0.0000000590257767246     -0.0000001078068143300     -0.0000001542795877948     -0.0000001775731247675     -0.0000001674063881310     -0.0000001362744508724     -0.0000001131069210762     -0.0000000896621340393     -0.0000000666527504894     -0.0000000468673524801     -0.0000000310396846223     -0.0000000190046201747     -0.0000000103448188950     -0.0000000043902302061     0.0000000000029437644 
    0.0000000000029712678     0.0000000108462982871     0.0000000231393348318     0.0000000381063632969     0.0000000568780635274     0.0000000807709835904     0.0000001109905423064     0.0000001471344413733     0.0000001881075988412     0.0000002557824331293     0.0000003077185665585     0.0000003039324236617     0.0000002409855689565     0.0000001481490432671     0.0000000657368770265     0.0000000182934146432     -0.0000000000041183108     -0.0000000183008409005     -0.0000000657420435163     -0.0000001481509778329     -0.0000002409839729384     -0.0000003039276973182     -0.0000003077116453992     -0.0000002557744914683     -0.0000001880997414060     -0.0000001471273435465     -0.0000001109841177638     -0.0000000807649888101     -0.0000000568722611698     -0.0000000381005851853     -0.0000000231334955120     -0.0000000108403864695     0.0000000000029712678 
    0.0000000000028461764     0.0000000166795401763     0.0000000349013163401     0.0000000562720370901     0.0000000828157119043     0.0000001172634674994     0.0000001622606727670     0.0000002175716923390     0.0000003113828132393     0.0000004272486773988     0.0000004877385065672     0.0000004504882363492     0.0000003265048311964     0.0000001713381402819     0.0000000504156894884     -0.0000000014252033366     -0.0000000000062020105     0.0000000014135390208     -0.0000000504252380821     -0.0000001713445023069     -0.0000003265074251211     -0.0000004504871001493     -0.0000004877342990848     -0.0000004272424932280     -0.0000003113758625625     -0.0000002175649997949     -0.0000001622545665959     -0.0000001172577611005     -0.0000000828101844123     -0.0000000562665230729     -0.0000000348957328056     -0.0000000166738797332     0.0000000000028461764 
    0.0000000000025528395     0.0000000218175056089     0.0000000454506510910     0.0000000731402947327     0.0000001081721894484     0.0000001551343191310     0.0000002184298350480     0.0000003089951049134     0.0000004735575702175     0.0000006301088086389     0.0000006854031584910     0.0000005969852118257     0.0000003952773170987     0.0000001678707442563     0.0000000088310209239     -0.0000000371869810879     -0.0000000000074049477     0.0000000371727349207     -0.0000000088435928953     -0.0000001678806109941     -0.0000003952836717699     -0.0000005969876982496     -0.0000006854020562939     -0.0000006301049997362     -0.0000004735522474266     -0.0000003089893965227     -0.0000002184244651711     -0.0000001551292571954     -0.0000001081672629962     -0.0000000731353642495     -0.0000000454456483294     -0.0000000218124295227     0.0000000000025528395 
    0.0000000000020918351     0.0000000261736826135     0.0000000545448688862     0.0000000881290358418     0.0000001316602022898     0.0000001917884670205     0.0000002747565637765     0.0000004209889299865     0.0000006483924811327     0.0000008352333567390     0.0000008738708152465     0.0000007240207676470     0.0000004383893620122     0.0000001385328268349     -0.0000000530837766166     -0.0000000839323953325     -0.0000000000072816736     0.0000000839181815147     0.0000000530706631933     -0.0000001385439820882     -0.0000004383976851718     -0.0000007240256372513     -0.0000008738721698575     -0.0000008352317924186     -0.0000006483890262247     -0.0000004209846579078     -0.0000002747522962856     -0.0000001917843836265     -0.0000001316561949434     -0.0000000881250065667     -0.0000000545407719038     -0.0000000261695232908     0.0000000000020918351 
    0.0000000000014843069     0.0000000295800967114     0.0000000617479838991     0.0000001002678121180     0.0000001512345449064     0.0000002231988678809     0.0000003243011719965     0.0000005281701694293     0.0000008045190817982     0.0000010107203271390     0.0000010275854016017     0.0000008184043135996     0.0000004571295747563     0.0000000956732297398     -0.0000001196356779754     -0.0000001311084602111     -0.0000000000057809119     0.0000001310970684000     0.0000001196248724475     -0.0000000956828516259     -0.0000004571372768856     -0.0000008184094560805     -0.0000010275877522894     -0.0000010107202123208     -0.0000008045172433535     -0.0000005281674474557     -0.0000003242982478841     -0.0000002231960194175     -0.0000001512317219691     -0.0000001002649594335     -0.0000000617450775763     -0.0000000295771451853     0.0000000000014843069 
    0.0000000000007699630     0.0000000317861971154     0.0000000664514474776     0.0000001083032914607     0.0000001644110120873     0.0000002446682615317     0.0000003616912693695     0.0000006051044978693     0.0000009123268804072     0.0000011285718195755     0.0000011272296951065     0.0000008749022439956     0.0000004609709943641     0.0000000583887029253     -0.0000001707611734944     -0.0000001661572386186     -0.0000000000031879338     0.0000001661509221555     0.0000001707550881411     -0.0000000583942554241     -0.0000004609755952630     -0.0000008749054930519     -0.0000011272314038565     -0.0000011285721190040     -0.0000009123261549716     -0.0000006051032076833     -0.0000003616897985534     -0.0000002446668036211     -0.0000001644095556698     -0.0000001083018139064     -0.0000000664499400022     -0.0000000317846659323     0.0000000000007699630 
    -0.0000000000000000000     0.0000000325539528707     0.0000000680952322954     0.0000001111296644820     0.0000001690807268987     0.0000002523268159974     0.0000003758810752344     0.0000006330474843734     0.0000009507910281481     0.0000011700359840143     0.0000011616232488478     0.0000008934997710952     0.0000004607015902772     0.0000000437057498882     -0.0000001899217014859     -0.0000001790966959351     -0.0000000000000000000     0.0000001790966959351     0.0000001899217014859     -0.0000000437057498882     -0.0000004607015902772     -0.0000008934997710952     -0.0000011616232488478     -0.0000011700359840143     -0.0000009507910281481     -0.0000006330474843734     -0.0000003758810752344     -0.0000002523268159974     -0.0000001690807268987     -0.0000001111296644820     -0.0000000680952322954     -0.0000000325539528707     -0.0000000000000000000 
    -0.0000000000007699630     0.0000000317846659323     0.0000000664499400022     0.0000001083018139064     0.0000001644095556698     0.0000002446668036211     0.0000003616897985534     0.0000006051032076833     0.0000009123261549716     0.0000011285721190040     0.0000011272314038565     0.0000008749054930519     0.0000004609755952630     0.0000000583942554241     -0.0000001707550881411     -0.0000001661509221555     0.0000000000031879338     0.0000001661572386186     0.0000001707611734944     -0.0000000583887029253     -0.0000004609709943641     -0.0000008749022439956     -0.0000011272296951065     -0.0000011285718195755     -0.0000009123268804072     -0.0000006051044978693     -0.0000003616912693695     -0.0000002446682615317     -0.0000001644110120873     -0.0000001083032914607     -0.0000000664514474776     -0.0000000317861971154     -0.0000000000007699630 
    -0.0000000000014843069     0.0000000295771451853     0.0000000617450775763     0.0000001002649594335     0.0000001512317219691     0.0000002231960194175     0.0000003242982478841     0.0000005281674474557     0.0000008045172433535     0.0000010107202123208     0.0000010275877522894     0.0000008184094560805     0.0000004571372768856     0.0000000956828516259     -0.0000001196248724475     -0.0000001310970684000     0.0000000000057809119     0.0000001311084602111     0.0000001196356779754     -0.0000000956732297398     -0.0000004571295747563     -0.0000008184043135996     -0.0000010275854016017     -0.0000010107203271390     -0.0000008045190817982     -0.0000005281701694293     -0.0000003243011719965     -0.0000002231988678809     -0.0000001512345449064     -0.0000001002678121180     -0.0000000617479838991     -0.0000000295800967114     -0.0000000000014843069 
    -0.0000000000020918351     0.0000000261695232908     0.0000000545407719038     0.0000000881250065667     0.0000001316561949434     0.0000001917843836265     0.0000002747522962856     0.0000004209846579078     0.0000006483890262247     0.0000008352317924186     0.0000008738721698575     0.0000007240256372513     0.0000004383976851718     0.0000001385439820882     -0.0000000530706631933     -0.0000000839181815147     0.0000000000072816736     0.0000000839323953325     0.0000000530837766166     -0.0000001385328268349     -0.0000004383893620122     -0.0000007240207676470     -0.0000008738708152465     -0.0000008352333567390     -0.0000006483924811327     -0.0000004209889299865     -0.0000002747565637765     -0.0000001917884670205     -0.0000001316602022898     -0.0000000881290358418     -0.0000000545448688862     -0.0000000261736826135     -0.0000000000020918351 
    -0.0000000000025528395     0.0000000218124295227     0.0000000454456483294     0.0000000731353642495     0.0000001081672629962     0.0000001551292571954     0.0000002184244651711     0.0000003089893965227     0.0000004735522474266     0.0000006301049997362     0.0000006854020562939     0.0000005969876982496     0.0000003952836717699     0.0000001678806109941     0.0000000088435928953     -0.0000000371727349207     0.0000000000074049477     0.0000000371869810879     -0.0000000088310209239     -0.0000001678707442563     -0.0000003952773170987     -0.0000005969852118257     -0.0000006854031584910     -0.0000006301088086389     -0.0000004735575702175     -0.0000003089951049134     -0.0000002184298350480     -0.0000001551343191310     -0.0000001081721894484     -0.0000000731402947327     -0.0000000454506510910     -0.0000000218175056089     -0.0000000000025528395 
    -0.0000000000028461764     0.0000000166738797332     0.0000000348957328056     0.0000000562665230729     0.0000000828101844123     0.0000001172577611005     0.0000001622545665959     0.0000002175649997949     0.0000003113758625625     0.0000004272424932280     0.0000004877342990848     0.0000004504871001493     0.0000003265074251211     0.0000001713445023069     0.0000000504252380821     -0.0000000014135390208     0.0000000000062020105     0.0000000014252033366     -0.0000000504156894884     -0.0000001713381402819     -0.0000003265048311964     -0.0000004504882363492     -0.0000004877385065672     -0.0000004272486773988     -0.0000003113828132393     -0.0000002175716923390     -0.0000001622606727670     -0.0000001172634674994     -0.0000000828157119043     -0.0000000562720370901     -0.0000000349013163401     -0.0000000166795401763     -0.0000000000028461764 
    -0.0000000000029712678     0.0000000108403864695     0.0000000231334955120     0.0000000381005851853     0.0000000568722611698     0.0000000807649888101     0.0000001109841177638     0.0000001471273435465     0.0000001880997414060     0.0000002557744914683     0.0000003077116453992     0.0000003039276973182     0.0000002409839729384     0.0000001481509778329     0.0000000657420435163     0.0000000183008409005     0.0000000000041183108     -0.0000000182934146432     -0.0000000657368770265     -0.0000001481490432671     -0.0000002409855689565     -0.0000003039324236617     -0.0000003077185665585     -0.0000002557824331293     -0.0000001881075988412     -0.0000001471344413733     -0.0000001109905423064     -0.0000000807709835904     -0.0000000568780635274     -0.0000000381063632969     -0.0000000231393348318     -0.0000000108462982871     -0.0000000000029712678 
    -0.0000000000029437644     0.0000000043902302061     0.0000000103448188950     0.0000000190046201747     0.0000000310396846223     0.0000000468673524801     0.0000000666527504894     0.0000000896621340393     0.0000001131069210762     0.0000001362744508724     0.0000001674063881310     0.0000001775731247675     0.0000001542795877948     0.0000001078068143300     0.0000000590257767246     0.0000000231500538615     0.0000000000018688356     -0.0000000231470745892     -0.0000000590248750902     -0.0000001078087707578     -0.0000001542844613457     -0.0000001775802992720     -0.0000001674148252650     -0.0000001362830271567     -0.0000001131147753825     -0.0000000896691542304     -0.0000000666591167240     -0.0000000468733162358     -0.0000000310454672628     -0.0000000190103730379     -0.0000000103506196015     -0.0000000043960915659     -0.0000000000029437644 
    -0.0000000000027886094     -0.0000000025440767802     -0.0000000032080626148     -0.0000000006514851130     0.0000000057252830672     0.0000000158917061142     0.0000000293192224635     0.0000000448541381363     0.0000000603747306927     0.0000000726470624109     0.0000000797766205324     0.0000000869237840466     0.0000000824285986569     0.0000000645390118316     0.0000000406868699956     0.0000000185514938364     0.0000000000001342896     -0.0000000185518472423     -0.0000000406889058050     -0.0000000645432940437     -0.0000000824350413685     -0.0000000869317223286     -0.0000000797850701155     -0.0000000726551127716     -0.0000000603820537014     -0.0000000448607301524     -0.0000000293252518864     -0.0000000158973886278     -0.0000000057308034230     0.0000000006460009797     0.0000000032025485802     0.0000000025385189749     -0.0000000000027886094 
    -0.0000000000025348600     -0.0000000097842268536     -0.0000000171808941262     -0.0000000204257638987     -0.0000000187143645312     -0.0000000122236744889     -0.0000000019517564610     0.0000000104681066616     0.0000000229422944421     0.0000000331662893226     0.0000000390726247859     0.0000000394781934749     0.0000000368572880391     0.0000000312952030650     0.0000000219808508282     0.0000000110380822898     -0.0000000000007275565     -0.0000000110399982771     -0.0000000219840016754     -0.0000000312999643858     -0.0000000368635175864     -0.0000000394852949717     -0.0000000390799319812     -0.0000000331733278717     -0.0000000229488109960     -0.0000000104740679613     0.0000000019462436889     0.0000000122184547957     0.0000000187092952719     0.0000000204207422208     0.0000000171758626638     0.0000000097791694591     -0.0000000000025348600 
    -0.0000000000022130045     -0.0000000171652689278     -0.0000000312432990212     -0.0000000398819991326     -0.0000000419385693700     -0.0000000376178286214     -0.0000000283004465554     -0.0000000161438336524     -0.0000000035621447069     0.0000000072862282830     0.0000000148920977138     0.0000000186030842729     0.0000000186184684346     0.0000000157725868800     0.0000000111735008550     0.0000000058109182750     -0.0000000000007509235     -0.0000000058127388746     -0.0000000111761686612     -0.0000000157763552163     -0.0000000186232958692     -0.0000000186086713028     -0.0000000148980260358     -0.0000000072921162086     0.0000000035565429324     0.0000000161386078092     0.0000000282955671914     0.0000000376132033751     0.0000000419340923977     0.0000000398775834149     0.0000000312388911823     0.0000000171608496128     -0.0000000000022130045 
    -0.0000000000018523024     -0.0000000245634663581     -0.0000000451327343139     -0.0000000586510883066     -0.0000000636326511611     -0.0000000603583628230     -0.0000000506243315034     -0.0000000371430309949     -0.0000000227860566966     -0.0000000099146357176     -0.0000000000020400262     0.0000000063915806273     0.0000000093964880250     0.0000000095435401481     0.0000000075360387332     0.0000000041148703170     -0.0000000000003459828     -0.0000000041158057117     -0.0000000075376372419     -0.0000000095460435495     -0.0000000093999121172     -0.0000000063957439403     -0.0000000000025694315     0.0000000099098843364     0.0000000227814017725     0.0000000371386082727     0.0000000506201746791     0.0000000603544301688     0.0000000636288647741     0.0000000586473717309     0.0000000451290361609     0.0000000245597651680     -0.0000000000018523024 
    -0.0000000000014766481     -0.0000000318269150119     -0.0000000585472304887     -0.0000000763258962991     -0.0000000834198405879     -0.0000000803410126042     -0.0000000694052201073     -0.0000000538957806798     -0.0000000371406880989     -0.0000000217877217976     -0.0000000094606359735     -0.0000000008057971256     0.0000000042307338456     0.0000000061080835223     0.0000000054969145220     0.0000000031804699475     -0.0000000000000501818     -0.0000000031807605360     -0.0000000054977272316     -0.0000000061096227636     -0.0000000042330425567     0.0000000008028219771     0.0000000094571939299     0.0000000217840476305     0.0000000371369954295     0.0000000538922201355     0.0000000694018590809     0.0000000803378415327     0.0000000834168026000     0.0000000763229255020     0.0000000585442798373     0.0000000318239639408     -0.0000000000014766481 
    -0.0000000000011008488     -0.0000000386323347878     -0.0000000709133018380     -0.0000000922182261592     -0.0000001006723315518     -0.0000000971866627300     -0.0000000846934894917     -0.0000000670317614964     -0.0000000479102246788     -0.0000000302121261491     -0.0000000157244652023     -0.0000000052197614613     0.0000000012819783915     0.0000000042433504991     0.0000000044114429727     0.0000000026813350210     0.0000000000000949902     -0.0000000026812865955     -0.0000000044117844613     -0.0000000042442400708     -0.0000000012834614616     0.0000000052177424105     0.0000000157220416388     0.0000000302094674958     0.0000000479075004020     0.0000000670291048821     0.0000000846909719792     0.0000000971842900243     0.0000001006700641793     0.0000000922160123294     0.0000000709111033833     0.0000000386301351906     -0.0000000000011008488 
    -0.0000000000007302550     -0.0000000443873646001     -0.0000000812281089078     -0.0000001051944911262     -0.0000001143901636277     -0.0000001102036189288     -0.0000000961848812235     -0.0000000766545808002     -0.0000000555954181598     -0.0000000360349044079     -0.0000000198705919817     -0.0000000079784485331     -0.0000000004393433355     0.0000000032258633196     0.0000000038483497044     0.0000000024289655229     0.0000000000001233193     -0.0000000024288132037     -0.0000000038484572514     -0.0000000032263370458     0.0000000004384697636     0.0000000079772069234     0.0000000198690623816     0.0000000360331950679     0.0000000555936430486     0.0000000766528347597     0.0000000961832193313     0.0000001102020503738     0.0000001143886641854     0.0000001051930261831     0.0000000812266525658     0.0000000443859060531     -0.0000000000007302550 
    -0.0000000000003641267     -0.0000000483109661142     -0.0000000881930121846     -0.0000001138241253092     -0.0000001233390248761     -0.0000001185203517369     -0.0000001033849732357     -0.0000000825855986799     -0.0000000602657390425     -0.0000000395199437280     -0.0000000223002931873     -0.0000000095444743393     -0.0000000013725824439     0.0000000027056670168     0.0000000035772322230     0.0000000023125782412     0.0000000000000788613     -0.0000000023124677489     -0.0000000035772517051     -0.0000000027058694284     0.0000000013721800620     0.0000000095438866725     0.0000000222995581917     0.0000000395191136019     0.0000000602648700082     0.0000000825847388052     0.0000001033841515175     0.0000001185195741954     0.0000001233382802977     0.0000001138233967833     0.0000000881922869697     0.0000000483102390977     -0.0000000000003641267 
    -0.0000000000000000000     -0.0000000497114431496     -0.0000000906670660650     -0.0000001168656613341     -0.0000001264615880884     -0.0000001213907791763     -0.0000001058449124727     -0.0000000845956027149     -0.0000000618387806916     -0.0000000406869982830     -0.0000000231076158253     -0.0000000100582491656     -0.0000000016723845782     0.0000000025438157855     0.0000000034961628343     0.0000000022789225270     0.0000000000000000000     -0.0000000022789225270     -0.0000000034961628343     -0.0000000025438157855     0.0000000016723845782     0.0000000100582491656     0.0000000231076158253     0.0000000406869982830     0.0000000618387806916     0.0000000845956027149     0.0000001058449124727     0.0000001213907791763     0.0000001264615880884     0.0000001168656613341     0.0000000906670660650     0.0000000497114431496     -0.0000000000000000000 
    -0.0000000000000000000     -0.0000000296938106299     -0.0000000545999813972     -0.0000000712892166945     -0.0000000784406643270     -0.0000000767715544404     -0.0000000683839429232     -0.0000000559475752035     -0.0000000420301333536     -0.0000000286882894829     -0.0000000173044414673     -0.0000000086032150279     -0.0000000027641707280     0.0000000004408320300     0.0000000015170921467     0.0000000011279685469     0.0000000000000000000     -0.0000000011279685469     -0.0000000015170921467     -0.0000000004408320300     0.0000000027641707280     0.0000000086032150279     0.0000000173044414673     0.0000000286882894829     0.0000000420301333536     0.0000000559475752035     0.0000000683839429232     0.0000000767715544404     0.0000000784406643270     0.0000000712892166945     0.0000000545999813972     0.0000000296938106299     -0.0000000000000000000 
    0.0000000000004334528     -0.0000000289065591102     -0.0000000531986487281     -0.0000000695414756072     -0.0000000766055452001     -0.0000000750307751264     -0.0000000668324549217     -0.0000000546232627805     -0.0000000409459677539     -0.0000000278452862896     -0.0000000166886390815     -0.0000000081821839074     -0.0000000024929131629     0.0000000006071837515     0.0000000016124203013     0.0000000011716914734     -0.0000000000000631505     -0.0000000011717681764     -0.0000000016123618440     -0.0000000006069379164     0.0000000024933614787     0.0000000081828204469     0.0000000166894295340     0.0000000278461827382     0.0000000409469157305     0.0000000546242127241     0.0000000668333750551     0.0000000750316578006     0.0000000766064019798     0.0000000695423246785     0.0000000531995031949     0.0000000289074221852     0.0000000000004334528 
    0.0000000000008631188     -0.0000000266914227664     -0.0000000492324094942     -0.0000000645500819713     -0.0000000713061185134     -0.0000000699459162369     -0.0000000622556620722     -0.0000000506881744439     -0.0000000377069663512     -0.0000000253124337096     -0.0000000148227640230     -0.0000000068890837204     -0.0000000016426689822     0.0000000011426410373     0.0000000019278464410     0.0000000013194172830     -0.0000000000000939030     -0.0000000013195056824     -0.0000000019276634759     -0.0000000011420810616     0.0000000016436362350     0.0000000068904270563     0.0000000148244097881     0.0000000253142812525     0.0000000377089047603     0.0000000506901059344     0.0000000622575259499     0.0000000699476993107     0.0000000713078442586     0.0000000645517860375     0.0000000492341178523     0.0000000266931432697     0.0000000000008631188 
    0.0000000000012876462     -0.0000000234056772046     -0.0000000432837283328     -0.0000000569349553146     -0.0000000630508967682     -0.0000000618536549793     -0.0000000548332441762     -0.0000000442087617824     -0.0000000323012967883     -0.0000000210167805735     -0.0000000115835475000     -0.0000000045667335310     -0.0000000000461595279     0.0000000021987947697     0.0000000025772274981     0.0000000016319460657     -0.0000000000000533496     -0.0000000016319027275     -0.0000000025767743097     -0.0000000021977727381     0.0000000000477916509     0.0000000045689182844     0.0000000115861605240     0.0000000210196611944     0.0000000323042788098     0.0000000442117076516     0.0000000548360743166     0.0000000618563566559     0.0000000630535057640     0.0000000569375221272     0.0000000432862900179     0.0000000234082475771     0.0000000000012876462 
    0.0000000000017065966     -0.0000000194409404726     -0.0000000359957767228     -0.0000000473876887063     -0.0000000524105604390     -0.0000000511216293746     -0.0000000447247961254     -0.0000000351637718128     -0.0000000245507714303     -0.0000000146408047566     -0.0000000065437567116     -0.0000000007320640613     0.0000000027663093218     0.0000000041689115175     0.0000000038363581141     0.0000000022495043100     0.0000000000001036421     -0.0000000022490936253     -0.0000000038353930378     -0.0000000041671831535     -0.0000000027637790380     0.0000000007352909142     0.0000000065474846021     0.0000000146448048501     0.0000000245548313792     0.0000000351677353969     0.0000000447285863061     0.0000000511252460729     0.0000000524140530789     0.0000000473911182081     0.0000000359991872965     0.0000000194443515258     0.0000000000017065966 
    0.0000000000021151498     -0.0000000150787894664     -0.0000000278395051684     -0.0000000364264333155     -0.0000000398145109938     -0.0000000379952121849     -0.0000000319353570705     -0.0000000232811185237     -0.0000000138832426550     -0.0000000053239408438     0.0000000013716248205     0.0000000057663236124     0.0000000078586020253     0.0000000078968575121     0.0000000062648975343     0.0000000034438305347     0.0000000000004044113     -0.0000000034427575080     -0.0000000062631084321     -0.0000000078940985459     -0.0000000078548613237     -0.0000000057617910239     -0.0000000013665991217     0.0000000053291518915     0.0000000138883958167     0.0000000232860702837     0.0000000319400638887     0.0000000379997052652     0.0000000398188580931     0.0000000364307026139     0.0000000278437438834     0.0000000150830205563     0.0000000000021151498 
    0.0000000000024990657     -0.0000000104638126276     -0.0000000190710931457     -0.0000000243519983517     -0.0000000255097270691     -0.0000000225430473011     -0.0000000162125633584     -0.0000000078468390465     0.0000000009714268778     0.0000000087484043604     0.0000000143593741903     0.0000000172092394921     0.0000000172548216147     0.0000000149244673522     0.0000000112013471104     0.0000000060585971437     0.0000000000007294940     -0.0000000060567701052     -0.0000000111985393307     -0.0000000149203940440     -0.0000000172495736099     -0.0000000172031381620     -0.0000000143528631150     -0.0000000087418883847     -0.0000000009651698320     0.0000000078527344632     0.0000000162181169347     0.0000000225483422269     0.0000000255148590638     0.0000000243570451888     0.0000000190761043335     0.0000000104688127517     0.0000000000024990657 
    0.0000000000028339147     -0.0000000056761976416     -0.0000000098519795593     -0.0000000113774733964     -0.0000000096609210276     -0.0000000046916752804     0.0000000030153990751     0.0000000124766963961     0.0000000222918786105     0.0000000307638779348     0.0000000361956343146     0.0000000380343497259     0.0000000388255042707     0.0000000348003398455     0.0000000256038311868     0.0000000133487423384     0.0000000000004180301     -0.0000000133473672620     -0.0000000256010051539     -0.0000000347955970092     -0.0000000388189567582     -0.0000000380266198345     -0.0000000361875627534     -0.0000000307560198538     -0.0000000222845293006     -0.0000000124699137725     -0.0000000030090881262     0.0000000046976634407     0.0000000096667222121     0.0000000113831838787     0.0000000098576558313     0.0000000056818659625     0.0000000000028339147 
    0.0000000000030890566     -0.0000000008183805707     -0.0000000003893422340     0.0000000022252538501     0.0000000075377791993     0.0000000157188212047     0.0000000266438943831     0.0000000397122637581     0.0000000534741028791     0.0000000653922763444     0.0000000777537130397     0.0000000896573046483     0.0000000887768398552     0.0000000736515367600     0.0000000500728307398     0.0000000245891382369     -0.0000000000008713270     -0.0000000245901502774     -0.0000000500718542994     -0.0000000736478660293     -0.0000000887704984757     -0.0000000896489792351     -0.0000000777444763206     -0.0000000653832305684     -0.0000000534657746706     -0.0000000397047038828     -0.0000000266369544383     -0.0000000157122907513     -0.0000000075314748030     -0.0000000022190499553     0.0000000003955166845     0.0000000008245553627     0.0000000000030890566 
    0.0000000000032332633     0.0000000039586807953     0.0000000090280199179     0.0000000160982987172     0.0000000258423426863     0.0000000388880036251     0.0000000557670112871     0.0000000763119398608     0.0000000985797685292     0.0000001289093610529     0.0000001655862080671     0.0000001815277719013     0.0000001663472017029     0.0000001271041551923     0.0000000796080564377     0.0000000365144855235     -0.0000000000030900295     -0.0000000365197818142     -0.0000000796109125398     -0.0000001271035985143     -0.0000001663430616670     -0.0000001815206579149     -0.0000001655772512330     -0.0000001288998416730     -0.0000000985707869360     -0.0000000763038413918     -0.0000000557596538218     -0.0000000388811442821     -0.0000000258357562701     -0.0000000160918263821     -0.0000000090215717526     -0.0000000039522222147     0.0000000000032332633 
    0.0000000000032387498     0.0000000084972160734     0.0000000181069788777     0.0000000298869447248     0.0000000450024454524     0.0000000649570758651     0.0000000913134230263     0.0000001243802667269     0.0000001709091229022     0.0000002440443321899     0.0000003007130198264     0.0000003088335882267     0.0000002637276387951     0.0000001860449689544     0.0000001061727174396     0.0000000444301480833     -0.0000000000057330221     -0.0000000444406910119     -0.0000001061806586553     -0.0000001860491133666     -0.0000002637275141147     -0.0000003088295248132     -0.0000003007060127889     -0.0000002440357205960     -0.0000001709002221917     -0.0000001243720509847     -0.0000000913059802877     -0.0000000649501813523     -0.0000000449958563215     -0.0000000298804787564     -0.0000000181005317509     -0.0000000084907501667     0.0000000000032387498 
    0.0000000000030835627     0.0000000126863418108     0.0000000266374818834     0.0000000433132145439     0.0000000647361999120     0.0000000937534984411     0.0000001333731754079     0.0000001864226528054     0.0000002882687342523     0.0000004039340878369     0.0000004725790918331     0.0000004588507018356     0.0000003676149655749     0.0000002385638946587     0.0000001209953361344     0.0000000437539227545     -0.0000000000079849431     -0.0000000437690834765     -0.0000001210081445013     -0.0000002385730594870     -0.0000003676196742251     -0.0000004588508372236     -0.0000004725753030216     -0.0000004039276074692     -0.0000002882609967203     -0.0000001864149139789     -0.0000001333660914315     -0.0000000937469373364     -0.0000000647299386940     -0.0000000433070712181     -0.0000000266313510584     -0.0000000126801877378     0.0000000000030835627 
    0.0000000000027547221     0.0000000164633199292     0.0000000344763119249     0.0000000561015469091     0.0000000845275824974     0.0000001243410661176     0.0000001803148683837     0.0000002756924617442     0.0000004375347135575     0.0000005908743949119     0.0000006616814622034     0.0000006128876164568     0.0000004626817316156     0.0000002742352768768     0.0000001184383237557     0.0000000322931876679     -0.0000000000090879895     -0.0000000323107862769     -0.0000001184541573913     -0.0000002742481289499     -0.0000004626905350926     -0.0000006128917877204     -0.0000006616811930605     -0.0000005908706533133     -0.0000004375288994209     -0.0000002756859399011     -0.0000001803086278035     -0.0000001243352425450     -0.0000000845220081671     -0.0000000560960678035     -0.0000000344708378739     -0.0000000164578225994     0.0000000000027547221 
    0.0000000000022532279     0.0000000197510262844     0.0000000414152468283     0.0000000677648305387     0.0000001033059480362     0.0000001545422398940     0.0000002282979111773     0.0000003803489145417     0.0000005961357942991     0.0000007791609864940     0.0000008431073459967     0.0000007510354466455     0.0000005368874493953     0.0000002889402324327     0.0000000994621003437     0.0000000119882781855     -0.0000000000086536045     -0.0000000120052648596     -0.0000000994780153561     -0.0000002889540845299     -0.0000005368981193257     -0.0000007510420619173     -0.0000008431097084290     -0.0000007791597246164     -0.0000005961321012594     -0.0000003803440737680     -0.0000002282929372801     -0.0000001545375320957     -0.0000001033014101183     -0.0000000677603548058     -0.0000000414107694043     -0.0000000197465292576     0.0000000000022532279 
    0.0000000000015986622     0.0000000223883596760     0.0000000470495934463     0.0000000774318258642     0.0000001192717268270     0.0000001808318413454     0.0000002761959410161     0.0000004785521078282     0.0000007368397880609     0.0000009401289171872     0.0000009921479415413     0.0000008575184760380     0.0000005855293000396     0.0000002870291643244     0.0000000721880169103     -0.0000000112013767488     -0.0000000000067265083     0.0000000111880509305     -0.0000000722008350411     -0.0000002870407962990     -0.0000005855388221489     -0.0000008575250371109     -0.0000009921511759562     -0.0000009401291499506     -0.0000007368378712631     -0.0000004785490364913     -0.0000002761925365072     -0.0000001808285463722     -0.0000001192685232124     -0.0000000774286534025     -0.0000000470464158094     -0.0000000223851683961     0.0000000000015986622 
    0.0000000000008297767     0.0000000241305374915     0.0000000507987863919     0.0000000839406813086     0.0000001301719338914     0.0000001989948545891     0.0000003130020211531     0.0000005484023595467     0.0000008337198085438     0.0000010482725164282     0.0000010893592298717     0.0000009234306590831     0.0000006110744691865     0.0000002788413839883     0.0000000486742887087     -0.0000000294826069708     -0.0000000000036652166     0.0000000294753068625     -0.0000000486814167294     -0.0000002788480010943     -0.0000006110800561171     -0.0000009234346962749     -0.0000010893614480767     -0.0000010482730375640     -0.0000008337190711706     -0.0000005484009052809     -0.0000003130003096142     -0.0000001989931628385     -0.0000001301702773623     -0.0000000839390356071     -0.0000000507971365108     -0.0000000241288807656     0.0000000000008297767 
    0.0000000000000000000     0.0000000247432197900     0.0000000521221685090     0.0000000862503560820     0.0000001340628752017     0.0000002055090417785     0.0000003267660286955     0.0000005736801492160     0.0000008682486214990     0.0000010863376797742     0.0000011230325702336     0.0000009455826312164     0.0000006187440128422     0.0000002746919495488     0.0000000394560828371     -0.0000000364016708695     -0.0000000000000000000     0.0000000364016708695     -0.0000000394560828371     -0.0000002746919495488     -0.0000006187440128422     -0.0000009455826312164     -0.0000011230325702336     -0.0000010863376797742     -0.0000008682486214990     -0.0000005736801492160     -0.0000003267660286955     -0.0000002055090417785     -0.0000001340628752017     -0.0000000862503560820     -0.0000000521221685090     -0.0000000247432197900     0.0000000000000000000 
    -0.0000000000008297767     0.0000000241288807656     0.0000000507971365108     0.0000000839390356071     0.0000001301702773623     0.0000001989931628385     0.0000003130003096142     0.0000005484009052809     0.0000008337190711706     0.0000010482730375640     0.0000010893614480767     0.0000009234346962749     0.0000006110800561171     0.0000002788480010943     0.0000000486814167294     -0.0000000294753068625     0.0000000000036652166     0.0000000294826069708     -0.0000000486742887087     -0.0000002788413839883     -0.0000006110744691865     -0.0000009234306590831     -0.0000010893592298717     -0.0000010482725164282     -0.0000008337198085438     -0.0000005484023595467     -0.0000003130020211531     -0.0000001989948545891     -0.0000001301719338914     -0.0000000839406813086     -0.0000000507987863919     -0.0000000241305374915     -0.0000000000008297767 
    -0.0000000000015986622     0.0000000223851683961     0.0000000470464158094     0.0000000774286534025     0.0000001192685232124     0.0000001808285463722     0.0000002761925365072     0.0000004785490364913     0.0000007368378712631     0.0000009401291499506     0.0000009921511759562     0.0000008575250371109     0.0000005855388221489     0.0000002870407962990     0.0000000722008350411     -0.0000000111880509305     0.0000000000067265083     0.0000000112013767488     -0.0000000721880169103     -0.0000002870291643244     -0.0000005855293000396     -0.0000008575184760380     -0.0000009921479415413     -0.0000009401289171872     -0.0000007368397880609     -0.0000004785521078282     -0.0000002761959410161     -0.0000001808318413454     -0.0000001192717268270     -0.0000000774318258642     -0.0000000470495934463     -0.0000000223883596760     -0.0000000000015986622 
    -0.0000000000022532279     0.0000000197465292576     0.0000000414107694043     0.0000000677603548058     0.0000001033014101183     0.0000001545375320957     0.0000002282929372801     0.0000003803440737680     0.0000005961321012594     0.0000007791597246164     0.0000008431097084290     0.0000007510420619173     0.0000005368981193257     0.0000002889540845299     0.0000000994780153561     0.0000000120052648596     0.0000000000086536045     -0.0000000119882781855     -0.0000000994621003437     -0.0000002889402324327     -0.0000005368874493953     -0.0000007510354466455     -0.0000008431073459967     -0.0000007791609864940     -0.0000005961357942991     -0.0000003803489145417     -0.0000002282979111773     -0.0000001545422398940     -0.0000001033059480362     -0.0000000677648305387     -0.0000000414152468283     -0.0000000197510262844     -0.0000000000022532279 
    -0.0000000000027547221     0.0000000164578225994     0.0000000344708378739     0.0000000560960678035     0.0000000845220081671     0.0000001243352425450     0.0000001803086278035     0.0000002756859399011     0.0000004375288994209     0.0000005908706533133     0.0000006616811930605     0.0000006128917877204     0.0000004626905350926     0.0000002742481289499     0.0000001184541573913     0.0000000323107862769     0.0000000000090879895     -0.0000000322931876679     -0.0000001184383237557     -0.0000002742352768768     -0.0000004626817316156     -0.0000006128876164568     -0.0000006616814622034     -0.0000005908743949119     -0.0000004375347135575     -0.0000002756924617442     -0.0000001803148683837     -0.0000001243410661176     -0.0000000845275824974     -0.0000000561015469091     -0.0000000344763119249     -0.0000000164633199292     -0.0000000000027547221 
    -0.0000000000030835627     0.0000000126801877378     0.0000000266313510584     0.0000000433070712181     0.0000000647299386940     0.0000000937469373364     0.0000001333660914315     0.0000001864149139789     0.0000002882609967203     0.0000004039276074692     0.0000004725753030216     0.0000004588508372236     0.0000003676196742251     0.0000002385730594870     0.0000001210081445013     0.0000000437690834765     0.0000000000079849431     -0.0000000437539227545     -0.0000001209953361344     -0.0000002385638946587     -0.0000003676149655749     -0.0000004588507018356     -0.0000004725790918331     -0.0000004039340878369     -0.0000002882687342523     -0.0000001864226528054     -0.0000001333731754079     -0.0000000937534984411     -0.0000000647361999120     -0.0000000433132145439     -0.0000000266374818834     -0.0000000126863418108     -0.0000000000030835627 
    -0.0000000000032387498     0.0000000084907501667     0.0000000181005317509     0.0000000298804787564     0.0000000449958563215     0.0000000649501813523     0.0000000913059802877     0.0000001243720509847     0.0000001709002221917     0.0000002440357205960     0.0000003007060127889     0.0000003088295248132     0.0000002637275141147     0.0000001860491133666     0.0000001061806586553     0.0000000444406910119     0.0000000000057330221     -0.0000000444301480833     -0.0000001061727174396     -0.0000001860449689544     -0.0000002637276387951     -0.0000003088335882267     -0.0000003007130198264     -0.0000002440443321899     -0.0000001709091229022     -0.0000001243802667269     -0.0000000913134230263     -0.0000000649570758651     -0.0000000450024454524     -0.0000000298869447248     -0.0000000181069788777     -0.0000000084972160734     -0.0000000000032387498 
    -0.0000000000032332633     0.0000000039522222147     0.0000000090215717526     0.0000000160918263821     0.0000000258357562701     0.0000000388811442821     0.0000000557596538218     0.0000000763038413918     0.0000000985707869360     0.0000001288998416730     0.0000001655772512330     0.0000001815206579149     0.0000001663430616670     0.0000001271035985143     0.0000000796109125398     0.0000000365197818142     0.0000000000030900295     -0.0000000365144855235     -0.0000000796080564377     -0.0000001271041551923     -0.0000001663472017029     -0.0000001815277719013     -0.0000001655862080671     -0.0000001289093610529     -0.0000000985797685292     -0.0000000763119398608     -0.0000000557670112871     -0.0000000388880036251     -0.0000000258423426863     -0.0000000160982987172     -0.0000000090280199179     -0.0000000039586807953     -0.0000000000032332633 
    -0.0000000000030890566     -0.0000000008245553627     -0.0000000003955166845     0.0000000022190499553     0.0000000075314748030     0.0000000157122907513     0.0000000266369544383     0.0000000397047038828     0.0000000534657746706     0.0000000653832305684     0.0000000777444763206     0.0000000896489792351     0.0000000887704984757     0.0000000736478660293     0.0000000500718542994     0.0000000245901502774     0.0000000000008713270     -0.0000000245891382369     -0.0000000500728307398     -0.0000000736515367600     -0.0000000887768398552     -0.0000000896573046483     -0.0000000777537130397     -0.0000000653922763444     -0.0000000534741028791     -0.0000000397122637581     -0.0000000266438943831     -0.0000000157188212047     -0.0000000075377791993     -0.0000000022252538501     0.0000000003893422340     0.0000000008183805707     -0.0000000000030890566 
    -0.0000000000028339147     -0.0000000056818659625     -0.0000000098576558313     -0.0000000113831838787     -0.0000000096667222121     -0.0000000046976634407     0.0000000030090881262     0.0000000124699137725     0.0000000222845293006     0.0000000307560198538     0.0000000361875627534     0.0000000380266198345     0.0000000388189567582     0.0000000347955970092     0.0000000256010051539     0.0000000133473672620     -0.0000000000004180301     -0.0000000133487423384     -0.0000000256038311868     -0.0000000348003398455     -0.0000000388255042707     -0.0000000380343497259     -0.0000000361956343146     -0.0000000307638779348     -0.0000000222918786105     -0.0000000124766963961     -0.0000000030153990751     0.0000000046916752804     0.0000000096609210276     0.0000000113774733964     0.0000000098519795593     0.0000000056761976416     -0.0000000000028339147 
    -0.0000000000024990657     -0.0000000104688127517     -0.0000000190761043335     -0.0000000243570451888     -0.0000000255148590638     -0.0000000225483422269     -0.0000000162181169347     -0.0000000078527344632     0.0000000009651698320     0.0000000087418883847     0.0000000143528631150     0.0000000172031381620     0.0000000172495736099     0.0000000149203940440     0.0000000111985393307     0.0000000060567701052     -0.0000000000007294940     -0.0000000060585971437     -0.0000000112013471104     -0.0000000149244673522     -0.0000000172548216147     -0.0000000172092394921     -0.0000000143593741903     -0.0000000087484043604     -0.0000000009714268778     0.0000000078468390465     0.0000000162125633584     0.0000000225430473011     0.0000000255097270691     0.0000000243519983517     0.0000000190710931457     0.0000000104638126276     -0.0000000000024990657 
    -0.0000000000021151498     -0.0000000150830205563     -0.0000000278437438834     -0.0000000364307026139     -0.0000000398188580931     -0.0000000379997052652     -0.0000000319400638887     -0.0000000232860702837     -0.0000000138883958167     -0.0000000053291518915     0.0000000013665991217     0.0000000057617910239     0.0000000078548613237     0.0000000078940985459     0.0000000062631084321     0.0000000034427575080     -0.0000000000004044113     -0.0000000034438305347     -0.0000000062648975343     -0.0000000078968575121     -0.0000000078586020253     -0.0000000057663236124     -0.0000000013716248205     0.0000000053239408438     0.0000000138832426550     0.0000000232811185237     0.0000000319353570705     0.0000000379952121849     0.0000000398145109938     0.0000000364264333155     0.0000000278395051684     0.0000000150787894664     -0.0000000000021151498 
    -0.0000000000017065966     -0.0000000194443515258     -0.0000000359991872965     -0.0000000473911182081     -0.0000000524140530789     -0.0000000511252460729     -0.0000000447285863061     -0.0000000351677353969     -0.0000000245548313792     -0.0000000146448048501     -0.0000000065474846021     -0.0000000007352909142     0.0000000027637790380     0.0000000041671831535     0.0000000038353930378     0.0000000022490936253     -0.0000000000001036421     -0.0000000022495043100     -0.0000000038363581141     -0.0000000041689115175     -0.0000000027663093218     0.0000000007320640613     0.0000000065437567116     0.0000000146408047566     0.0000000245507714303     0.0000000351637718128     0.0000000447247961254     0.0000000511216293746     0.0000000524105604390     0.0000000473876887063     0.0000000359957767228     0.0000000194409404726     -0.0000000000017065966 
    -0.0000000000012876462     -0.0000000234082475771     -0.0000000432862900179     -0.0000000569375221272     -0.0000000630535057640     -0.0000000618563566559     -0.0000000548360743166     -0.0000000442117076516     -0.0000000323042788098     -0.0000000210196611944     -0.0000000115861605240     -0.0000000045689182844     -0.0000000000477916509     0.0000000021977727381     0.0000000025767743097     0.0000000016319027275     0.0000000000000533496     -0.0000000016319460657     -0.0000000025772274981     -0.0000000021987947697     0.0000000000461595279     0.0000000045667335310     0.0000000115835475000     0.0000000210167805735     0.0000000323012967883     0.0000000442087617824     0.0000000548332441762     0.0000000618536549793     0.0000000630508967682     0.0000000569349553146     0.0000000432837283328     0.0000000234056772046     -0.0000000000012876462 
    -0.0000000000008631188     -0.0000000266931432697     -0.0000000492341178523     -0.0000000645517860375     -0.0000000713078442586     -0.0000000699476993107     -0.0000000622575259499     -0.0000000506901059344     -0.0000000377089047603     -0.0000000253142812525     -0.0000000148244097881     -0.0000000068904270563     -0.0000000016436362350     0.0000000011420810616     0.0000000019276634759     0.0000000013195056824     0.0000000000000939030     -0.0000000013194172830     -0.0000000019278464410     -0.0000000011426410373     0.0000000016426689822     0.0000000068890837204     0.0000000148227640230     0.0000000253124337096     0.0000000377069663512     0.0000000506881744439     0.0000000622556620722     0.0000000699459162369     0.0000000713061185134     0.0000000645500819713     0.0000000492324094942     0.0000000266914227664     -0.0000000000008631188 
    -0.0000000000004334528     -0.0000000289074221852     -0.0000000531995031949     -0.0000000695423246785     -0.0000000766064019798     -0.0000000750316578006     -0.0000000668333750551     -0.0000000546242127241     -0.0000000409469157305     -0.0000000278461827382     -0.0000000166894295340     -0.0000000081828204469     -0.0000000024933614787     0.0000000006069379164     0.0000000016123618440     0.0000000011717681764     0.0000000000000631505     -0.0000000011716914734     -0.0000000016124203013     -0.0000000006071837515     0.0000000024929131629     0.0000000081821839074     0.0000000166886390815     0.0000000278452862896     0.0000000409459677539     0.0000000546232627805     0.0000000668324549217     0.0000000750307751264     0.0000000766055452001     0.0000000695414756072     0.0000000531986487281     0.0000000289065591102     -0.0000000000004334528 
    -0.0000000000000000000     -0.0000000296938106299     -0.0000000545999813972     -0.0000000712892166945     -0.0000000784406643270     -0.0000000767715544404     -0.0000000683839429232     -0.0000000559475752035     -0.0000000420301333536     -0.0000000286882894829     -0.0000000173044414673     -0.0000000086032150279     -0.0000000027641707280     0.0000000004408320300     0.0000000015170921467     0.0000000011279685469     0.0000000000000000000     -0.0000000011279685469     -0.0000000015170921467     -0.0000000004408320300     0.0000000027641707280     0.0000000086032150279     0.0000000173044414673     0.0000000286882894829     0.0000000420301333536     0.0000000559475752035     0.0000000683839429232     0.0000000767715544404     0.0000000784406643270     0.0000000712892166945     0.0000000545999813972     0.0000000296938106299     -0.0000000000000000000 
    -0.0000000000000000000     -0.0000000140066891075     -0.0000000258611521962     -0.0000000339820665271     -0.0000000376928957094     -0.0000000372279104779     -0.0000000334874854646     -0.0000000276945613381     -0.0000000210780601972     -0.0000000146499427043     -0.0000000090992708122     -0.0000000047921686829     -0.0000000018328291630     -0.0000000001342170168     0.0000000005243510837     0.0000000004504144760     0.0000000000000000000     -0.0000000004504144760     -0.0000000005243510837     0.0000000001342170168     0.0000000018328291630     0.0000000047921686829     0.0000000090992708122     0.0000000146499427043     0.0000000210780601972     0.0000000276945613381     0.0000000334874854646     0.0000000372279104779     0.0000000376928957094     0.0000000339820665271     0.0000000258611521962     0.0000000140066891075     -0.0000000000000000000 
    0.0000000000004734801     -0.0000000136458941670     -0.0000000252161147281     -0.0000000331708204048     -0.0000000368301400591     -0.0000000363953218323     -0.0000000327301156706     -0.0000000270339208499     -0.0000000205253707995     -0.0000000142104147559     -0.0000000087696840505     -0.0000000045591689244     -0.0000000016761974004     -0.0000000000334205601     0.0000000005847010954     0.0000000004789010322     -0.0000000000000552275     -0.0000000004789602736     -0.0000000005846216720     0.0000000000336903142     0.0000000016766713466     0.0000000045598333942     0.0000000087705075957     0.0000000142113525354     0.0000000205263692386     0.0000000270349286168     0.0000000327310981550     0.0000000363962695082     0.0000000368310643732     0.0000000331717404980     0.0000000252170443754     0.0000000136468359213     0.0000000000004734801 
    0.0000000000009405674     -0.0000000126282203691     -0.0000000233846850094     -0.0000000308450579666     -0.0000000343277416586     -0.0000000339522237849     -0.0000000304863320658     -0.0000000250633125589     -0.0000000188681831715     -0.0000000128847442175     -0.0000000077665828122     -0.0000000038398665669     -0.0000000011826457995     0.0000000002923076571     0.0000000007846217225     0.0000000005750141324     -0.0000000000000793392     -0.0000000005750699490     -0.0000000007843984518     -0.0000000002917002501     0.0000000011836654193     0.0000000038412682083     0.0000000077682979406     0.0000000128866776957     0.0000000188702256212     0.0000000250653627969     0.0000000304883238687     0.0000000339541399037     0.0000000343296045197     0.0000000308469041800     0.0000000233865413869     0.0000000126300938270     0.0000000000009405674 
    0.0000000000013982651     -0.0000000111085358746     -0.0000000206171114508     -0.0000000272665031671     -0.0000000303936013294     -0.0000000300278584332     -0.0000000268151661086     -0.0000000217913381993     -0.0000000160788295278     -0.0000000106147378342     -0.0000000060051650599     -0.0000000025310174747     -0.0000000002436072253     0.0000000009416655314     0.0000000011988845219     0.0000000007789936907     -0.0000000000000333409     -0.0000000007789046030     -0.0000000011983722660     -0.0000000009405708286     0.0000000002453229510     0.0000000025332976989     0.0000000060078914431     0.0000000106177562027     0.0000000160819751831     0.0000000217944688216     0.0000000268181943878     0.0000000300307652550     0.0000000303964194754     0.0000000272692827534     0.0000000206198898113     0.0000000111113261908     0.0000000000013982651 
    0.0000000000018456200     -0.0000000092528900256     -0.0000000171834629101     -0.0000000227197493272     -0.0000000252530247224     -0.0000000247530884616     -0.0000000217506100527     -0.0000000171645063848     -0.0000000120226120780     -0.0000000071889094477     -0.0000000032106148698     -0.0000000003235421643     0.0000000014444509331     0.0000000021736980653     0.0000000020132514389     0.0000000011870234935     0.0000000000001277401     -0.0000000011865557214     -0.0000000020122076960     -0.0000000021718667511     -0.0000000014417960446     0.0000000003269150035     0.0000000032145144867     0.0000000071931117703     0.0000000120269047225     0.0000000171687271290     0.0000000217546728692     0.0000000247569851287     0.0000000252567993141     0.0000000227234601063     0.0000000171871532585     0.0000000092565795968     0.0000000000018456200 
    0.0000000000022776613     -0.0000000071756843872     -0.0000000132730075681     -0.0000000174076534044     -0.0000000190628723375     -0.0000000181944140661     -0.0000000152374989803     -0.0000000109795118020     -0.0000000063272785500     -0.0000000020655539863     0.0000000012912769505     0.0000000035125927506     0.0000000045709032261     0.0000000045522486721     0.0000000036150715001     0.0000000019929409345     0.0000000000004253172     -0.0000000019918120037     -0.0000000036131907206     -0.0000000045493542284     -0.0000000045669852073     -0.0000000035078448682     -0.0000000012859998572     0.0000000020710508310     0.0000000063327473834     0.0000000109848013007     0.0000000152425564039     0.0000000181992620519     0.0000000190675717073     0.0000000174122675584     0.0000000132775818624     0.0000000071802434384     0.0000000000022776613 
    0.0000000000026793145     -0.0000000049325939440     -0.0000000089839987481     -0.0000000114422627730     -0.0000000119023704104     -0.0000000103332557179     -0.0000000070784756855     -0.0000000027748664672     0.0000000017959297703     0.0000000058755372506     0.0000000088686015536     0.0000000104255269814     0.0000000104604078871     0.0000000092816585561     0.0000000071838653832     0.0000000039427531594     0.0000000000006688932     -0.0000000039410137695     -0.0000000071810542387     -0.0000000092774565018     -0.0000000104549287219     -0.0000000104191257797     -0.0000000088617369793     -0.0000000058686296258     -0.0000000017892570899     0.0000000027811897532     0.0000000070844602418     0.0000000103389773135     0.0000000119079180620     0.0000000114477088123     0.0000000089893907540     0.0000000049379601976     0.0000000000026793145 
    0.0000000000030242894     -0.0000000025589048092     -0.0000000043876307906     -0.0000000049147017725     -0.0000000038275752446     -0.0000000010841849371     0.0000000031029151818     0.0000000082765316287     0.0000000137388280691     0.0000000185908654048     0.0000000218742553932     0.0000000238920436268     0.0000000252004817746     0.0000000230090656959     0.0000000171997876561     0.0000000090807179848     0.0000000000001495649     -0.0000000090798270759     -0.0000000171972993333     -0.0000000230044512083     -0.0000000251938293376     -0.0000000238839883043     -0.0000000218657198354     -0.0000000185824954798     -0.0000000137309503801     -0.0000000082692243645     -0.0000000030960939222     0.0000000010906636182     0.0000000038338428352     0.0000000049208508136     0.0000000043937175325     0.0000000025649620353     0.0000000000030242894 
    0.0000000000032799966     -0.0000000001107029541     0.0000000004051941900     0.0000000020354212387     0.0000000050764614963     0.0000000096808297206     0.0000000158688614525     0.0000000234061119081     0.0000000315639531620     0.0000000389451075565     0.0000000487427951235     0.0000000573255055139     0.0000000576563659807     0.0000000488572082843     0.0000000340864281745     0.0000000171309069832     -0.0000000000014339886     -0.0000000171329722686     -0.0000000340863005354     -0.0000000488540836112     -0.0000000576502205591     -0.0000000573170350922     -0.0000000487331287803     -0.0000000389354415007     -0.0000000315549886840     -0.0000000233979356837     -0.0000000158613413289     -0.0000000096737597575     -0.0000000050696588533     -0.0000000020287600791     -0.0000000003986000993     0.0000000001172698455     0.0000000000032799966 
    0.0000000000034148874     0.0000000023273199530     0.0000000052354416990     0.0000000092177652306     0.0000000146950775731     0.0000000221127818957     0.0000000318989557084     0.0000000441016120671     0.0000000577374816237     0.0000000794707585918     0.0000001036929524168     0.0000001151043989079     0.0000001077117792968     0.0000000850267961800     0.0000000555642039486     0.0000000265542954370     -0.0000000000039673031     -0.0000000265612658454     -0.0000000555684988588     -0.0000000850273116398     -0.0000001077082625515     -0.0000001150974472858     -0.0000001036837549991     -0.0000000794607001605     -0.0000000577277906636     -0.0000000440928309038     -0.0000000318909705237     -0.0000000221053566664     -0.0000000146879844761     -0.0000000092108401191     -0.0000000052285866222     -0.0000000023204864868     0.0000000000034148874 
    0.0000000000034034741     0.0000000046689508103     0.0000000099457003719     0.0000000164485858788     0.0000000249146474690     0.0000000363337284774     0.0000000517822536794     0.0000000716518289069     0.0000001033271264598     0.0000001501937499123     0.0000001867285511278     0.0000001949020400563     0.0000001713954104962     0.0000001267871308525     0.0000000774208982150     0.0000000348800120720     -0.0000000000068416682     -0.0000000348927045555     -0.0000000774307784652     -0.0000001267928546765     -0.0000001713963812449     -0.0000001948985315042     -0.0000001867215915858     -0.0000001501847856745     -0.0000001033176129176     -0.0000000716429098441     -0.0000000517741700606     -0.0000000363262693469     -0.0000000249075667206     -0.0000000164416920264     -0.0000000099388768534     -0.0000000046621431139     0.0000000000034034741 
    0.0000000000032276783     0.0000000068567021391     0.0000000144292930159     0.0000000235918064522     0.0000000356075045736     0.0000000522898259031     0.0000000756259388868     0.0000001096473675623     0.0000001749612158662     0.0000002469211624388     0.0000002918560232685     0.0000002894460540033     0.0000002410465252202     0.0000001672363030649     0.0000000945490337073     0.0000000394316495611     -0.0000000000091598767     -0.0000000394491250816     -0.0000000945640269543     -0.0000001672473795958     -0.0000002410527111242     -0.0000002894471180731     -0.0000002918525991641     -0.0000002469145688388     -0.0000001749530325097     -0.0000001096390011815     -0.0000000756182400535     -0.0000000522827290478     -0.0000000356007861706     -0.0000000235852739527     -0.0000000144228265208     -0.0000000068502474817     0.0000000000032276783 
    0.0000000000028773076     0.0000000088598088980     0.0000000186157690586     0.0000000305093493715     0.0000000465072491497     0.0000000694816027271     0.0000001025288110473     0.0000001647321543811     0.0000002646532289873     0.0000003593447016716     0.0000004075425060361     0.0000003874284910137     0.0000003070950863233     0.0000001995593699850     0.0000001030065369699     0.0000000385440904809     -0.0000000000101545928     -0.0000000385638254969     -0.0000001030244779063     -0.0000001995741834391     -0.0000003071055279352     -0.0000003874338169761     -0.0000004075428408366     -0.0000003593410627160     -0.0000002646471472000     -0.0000001647251467520     -0.0000001025220176481     -0.0000000694752970641     -0.0000000465012675079     -0.0000000305035286574     -0.0000000186100047983     -0.0000000088540547225     0.0000000000028773076 
    0.0000000000023529601     0.0000000106348531634     0.0000000223881439377     0.0000000369271429247     0.0000000570079636112     0.0000000866645451222     0.0000001315241238247     0.0000002280410751462     0.0000003592910831745     0.0000004723235077196     0.0000005187424354020     0.0000004762863531998     0.0000003612029744421     0.0000002198980849665     0.0000001020888052289     0.0000000326107757057     -0.0000000000094928651     -0.0000000326294702508     -0.0000001021064734897     -0.0000002199136542936     -0.0000003612151618469     -0.0000004762941145814     -0.0000005187454755487     -0.0000004723224697821     -0.0000003592872625139     -0.0000002280358884982     -0.0000001315187033336     -0.0000000866594336030     -0.0000000570030851002     -0.0000000369223835483     -0.0000000223834277459     -0.0000000106301464926     0.0000000000023529601 
    0.0000000000016712435     0.0000000120832737343     0.0000000255020367959     0.0000000423266618668     0.0000000660485735283     0.0000001017650109437     0.0000001616598861532     0.0000002869128996910     0.0000004429795266823     0.0000005688428575992     0.0000006103038728301     0.0000005455677538663     0.0000003989557651440     0.0000002289673733815     0.0000000949611395330     0.0000000241937177904     -0.0000000000072890631     -0.0000000242082032970     -0.0000000949751859234     -0.0000002289802539586     -0.0000003989664331052     -0.0000005455752168004     -0.0000006103076739237     -0.0000005688433166970     -0.0000004429775634610     -0.0000002869096066929     -0.0000001616561739419     -0.0000001017614195003     -0.0000000660451191392     -0.0000000423232809232     -0.0000000254986843662     -0.0000000120799296105     0.0000000000016712435 
    0.0000000000008686160     0.0000000130524424453     0.0000000275993868759     0.0000000460013554429     0.0000000722746897773     0.0000001122649972839     0.0000001844482538476     0.0000003286119251283     0.0000005005198280421     0.0000006336817063097     0.0000006701428817642     0.0000005888800811065     0.0000004202179072640     0.0000002310928890607     0.0000000871921304379     0.0000000169887241386     -0.0000000000039442891     -0.0000000169966042609     -0.0000000871998846388     -0.0000002311001567717     -0.0000004202241040176     -0.0000005888846087441     -0.0000006701454170306     -0.0000006336823633708     -0.0000005005190785256     -0.0000003286103617508     -0.0000001844463840811     -0.0000001122631468663     -0.0000000722728986546     -0.0000000459995978045     -0.0000000275976432517     -0.0000000130507038720     0.0000000000008686160 
    0.0000000000000000000     0.0000000133953541877     0.0000000283441692795     0.0000000473122747537     0.0000000745067131074     0.0000001160427399370     0.0000001929174555925     0.0000003436767958548     0.0000005210166605769     0.0000006565054485258     0.0000006908946453495     0.0000006035236162989     0.0000004269421458462     0.0000002311130136428     0.0000000839173257705     0.0000000141755879815     -0.0000000000000000000     -0.0000000141755879815     -0.0000000839173257705     -0.0000002311130136428     -0.0000004269421458462     -0.0000006035236162989     -0.0000006908946453495     -0.0000006565054485258     -0.0000005210166605769     -0.0000003436767958548     -0.0000001929174555925     -0.0000001160427399370     -0.0000000745067131074     -0.0000000473122747537     -0.0000000283441692795     -0.0000000133953541877     0.0000000000000000000 
    -0.0000000000008686160     0.0000000130507038720     0.0000000275976432517     0.0000000459995978045     0.0000000722728986546     0.0000001122631468663     0.0000001844463840811     0.0000003286103617508     0.0000005005190785256     0.0000006336823633708     0.0000006701454170306     0.0000005888846087441     0.0000004202241040176     0.0000002311001567717     0.0000000871998846388     0.0000000169966042609     0.0000000000039442891     -0.0000000169887241386     -0.0000000871921304379     -0.0000002310928890607     -0.0000004202179072640     -0.0000005888800811065     -0.0000006701428817642     -0.0000006336817063097     -0.0000005005198280421     -0.0000003286119251283     -0.0000001844482538476     -0.0000001122649972839     -0.0000000722746897773     -0.0000000460013554429     -0.0000000275993868759     -0.0000000130524424453     -0.0000000000008686160 
    -0.0000000000016712435     0.0000000120799296105     0.0000000254986843662     0.0000000423232809232     0.0000000660451191392     0.0000001017614195003     0.0000001616561739419     0.0000002869096066929     0.0000004429775634610     0.0000005688433166970     0.0000006103076739237     0.0000005455752168004     0.0000003989664331052     0.0000002289802539586     0.0000000949751859234     0.0000000242082032970     0.0000000000072890631     -0.0000000241937177904     -0.0000000949611395330     -0.0000002289673733815     -0.0000003989557651440     -0.0000005455677538663     -0.0000006103038728301     -0.0000005688428575992     -0.0000004429795266823     -0.0000002869128996910     -0.0000001616598861532     -0.0000001017650109437     -0.0000000660485735283     -0.0000000423266618668     -0.0000000255020367959     -0.0000000120832737343     -0.0000000000016712435 
    -0.0000000000023529601     0.0000000106301464926     0.0000000223834277459     0.0000000369223835483     0.0000000570030851002     0.0000000866594336030     0.0000001315187033336     0.0000002280358884982     0.0000003592872625139     0.0000004723224697821     0.0000005187454755487     0.0000004762941145814     0.0000003612151618469     0.0000002199136542936     0.0000001021064734897     0.0000000326294702508     0.0000000000094928651     -0.0000000326107757057     -0.0000001020888052289     -0.0000002198980849666     -0.0000003612029744421     -0.0000004762863531998     -0.0000005187424354020     -0.0000004723235077196     -0.0000003592910831745     -0.0000002280410751462     -0.0000001315241238247     -0.0000000866645451222     -0.0000000570079636112     -0.0000000369271429247     -0.0000000223881439377     -0.0000000106348531634     -0.0000000000023529601 
    -0.0000000000028773076     0.0000000088540547225     0.0000000186100047983     0.0000000305035286574     0.0000000465012675079     0.0000000694752970641     0.0000001025220176481     0.0000001647251467520     0.0000002646471472000     0.0000003593410627160     0.0000004075428408366     0.0000003874338169761     0.0000003071055279352     0.0000001995741834391     0.0000001030244779063     0.0000000385638254969     0.0000000000101545928     -0.0000000385440904809     -0.0000001030065369699     -0.0000001995593699850     -0.0000003070950863233     -0.0000003874284910137     -0.0000004075425060361     -0.0000003593447016716     -0.0000002646532289873     -0.0000001647321543811     -0.0000001025288110473     -0.0000000694816027271     -0.0000000465072491497     -0.0000000305093493715     -0.0000000186157690586     -0.0000000088598088980     -0.0000000000028773076 
    -0.0000000000032276783     0.0000000068502474817     0.0000000144228265208     0.0000000235852739527     0.0000000356007861706     0.0000000522827290478     0.0000000756182400535     0.0000001096390011815     0.0000001749530325097     0.0000002469145688388     0.0000002918525991641     0.0000002894471180731     0.0000002410527111242     0.0000001672473795958     0.0000000945640269543     0.0000000394491250816     0.0000000000091598767     -0.0000000394316495611     -0.0000000945490337073     -0.0000001672363030649     -0.0000002410465252202     -0.0000002894460540033     -0.0000002918560232685     -0.0000002469211624388     -0.0000001749612158662     -0.0000001096473675623     -0.0000000756259388868     -0.0000000522898259031     -0.0000000356075045736     -0.0000000235918064522     -0.0000000144292930159     -0.0000000068567021391     -0.0000000000032276783 
    -0.0000000000034034741     0.0000000046621431139     0.0000000099388768534     0.0000000164416920264     0.0000000249075667206     0.0000000363262693469     0.0000000517741700606     0.0000000716429098441     0.0000001033176129176     0.0000001501847856745     0.0000001867215915858     0.0000001948985315042     0.0000001713963812449     0.0000001267928546765     0.0000000774307784652     0.0000000348927045555     0.0000000000068416682     -0.0000000348800120720     -0.0000000774208982150     -0.0000001267871308525     -0.0000001713954104962     -0.0000001949020400563     -0.0000001867285511278     -0.0000001501937499123     -0.0000001033271264598     -0.0000000716518289069     -0.0000000517822536794     -0.0000000363337284774     -0.0000000249146474690     -0.0000000164485858788     -0.0000000099457003719     -0.0000000046689508103     -0.0000000000034034741 
    -0.0000000000034148874     0.0000000023204864868     0.0000000052285866222     0.0000000092108401191     0.0000000146879844761     0.0000000221053566664     0.0000000318909705237     0.0000000440928309038     0.0000000577277906636     0.0000000794607001605     0.0000001036837549991     0.0000001150974472858     0.0000001077082625515     0.0000000850273116398     0.0000000555684988588     0.0000000265612658454     0.0000000000039673031     -0.0000000265542954370     -0.0000000555642039486     -0.0000000850267961800     -0.0000001077117792968     -0.0000001151043989079     -0.0000001036929524168     -0.0000000794707585918     -0.0000000577374816237     -0.0000000441016120671     -0.0000000318989557084     -0.0000000221127818957     -0.0000000146950775731     -0.0000000092177652306     -0.0000000052354416990     -0.0000000023273199530     -0.0000000000034148874 
    -0.0000000000032799966     -0.0000000001172698455     0.0000000003986000993     0.0000000020287600791     0.0000000050696588533     0.0000000096737597575     0.0000000158613413289     0.0000000233979356837     0.0000000315549886840     0.0000000389354415007     0.0000000487331287803     0.0000000573170350922     0.0000000576502205591     0.0000000488540836112     0.0000000340863005354     0.0000000171329722686     0.0000000000014339886     -0.0000000171309069832     -0.0000000340864281745     -0.0000000488572082843     -0.0000000576563659807     -0.0000000573255055139     -0.0000000487427951235     -0.0000000389451075565     -0.0000000315639531620     -0.0000000234061119081     -0.0000000158688614525     -0.0000000096808297206     -0.0000000050764614963     -0.0000000020354212387     -0.0000000004051941900     0.0000000001107029541     -0.0000000000032799966 
    -0.0000000000030242894     -0.0000000025649620353     -0.0000000043937175325     -0.0000000049208508136     -0.0000000038338428352     -0.0000000010906636182     0.0000000030960939222     0.0000000082692243645     0.0000000137309503801     0.0000000185824954798     0.0000000218657198354     0.0000000238839883043     0.0000000251938293376     0.0000000230044512083     0.0000000171972993333     0.0000000090798270759     -0.0000000000001495649     -0.0000000090807179848     -0.0000000171997876561     -0.0000000230090656959     -0.0000000252004817746     -0.0000000238920436268     -0.0000000218742553932     -0.0000000185908654048     -0.0000000137388280691     -0.0000000082765316287     -0.0000000031029151818     0.0000000010841849371     0.0000000038275752446     0.0000000049147017725     0.0000000043876307906     0.0000000025589048092     -0.0000000000030242894 
    -0.0000000000026793145     -0.0000000049379601976     -0.0000000089893907540     -0.0000000114477088123     -0.0000000119079180620     -0.0000000103389773135     -0.0000000070844602418     -0.0000000027811897532     0.0000000017892570899     0.0000000058686296258     0.0000000088617369793     0.0000000104191257797     0.0000000104549287219     0.0000000092774565018     0.0000000071810542387     0.0000000039410137695     -0.0000000000006688932     -0.0000000039427531594     -0.0000000071838653832     -0.0000000092816585561     -0.0000000104604078871     -0.0000000104255269814     -0.0000000088686015536     -0.0000000058755372506     -0.0000000017959297703     0.0000000027748664672     0.0000000070784756855     0.0000000103332557179     0.0000000119023704104     0.0000000114422627730     0.0000000089839987481     0.0000000049325939440     -0.0000000000026793145 
    -0.0000000000022776613     -0.0000000071802434384     -0.0000000132775818624     -0.0000000174122675584     -0.0000000190675717073     -0.0000000181992620519     -0.0000000152425564039     -0.0000000109848013007     -0.0000000063327473834     -0.0000000020710508310     0.0000000012859998572     0.0000000035078448682     0.0000000045669852073     0.0000000045493542284     0.0000000036131907206     0.0000000019918120037     -0.0000000000004253172     -0.0000000019929409345     -0.0000000036150715001     -0.0000000045522486721     -0.0000000045709032261     -0.0000000035125927506     -0.0000000012912769505     0.0000000020655539863     0.0000000063272785500     0.0000000109795118020     0.0000000152374989803     0.0000000181944140661     0.0000000190628723375     0.0000000174076534044     0.0000000132730075681     0.0000000071756843872     -0.0000000000022776613 
    -0.0000000000018456200     -0.0000000092565795968     -0.0000000171871532585     -0.0000000227234601063     -0.0000000252567993141     -0.0000000247569851287     -0.0000000217546728692     -0.0000000171687271290     -0.0000000120269047225     -0.0000000071931117703     -0.0000000032145144867     -0.0000000003269150035     0.0000000014417960446     0.0000000021718667511     0.0000000020122076960     0.0000000011865557214     -0.0000000000001277401     -0.0000000011870234935     -0.0000000020132514389     -0.0000000021736980653     -0.0000000014444509331     0.0000000003235421643     0.0000000032106148698     0.0000000071889094477     0.0000000120226120780     0.0000000171645063848     0.0000000217506100527     0.0000000247530884616     0.0000000252530247224     0.0000000227197493272     0.0000000171834629101     0.0000000092528900256     -0.0000000000018456200 
    -0.0000000000013982651     -0.0000000111113261908     -0.0000000206198898113     -0.0000000272692827534     -0.0000000303964194754     -0.0000000300307652550     -0.0000000268181943878     -0.0000000217944688216     -0.0000000160819751831     -0.0000000106177562027     -0.0000000060078914431     -0.0000000025332976989     -0.0000000002453229510     0.0000000009405708286     0.0000000011983722660     0.0000000007789046030     0.0000000000000333409     -0.0000000007789936907     -0.0000000011988845219     -0.0000000009416655314     0.0000000002436072253     0.0000000025310174747     0.0000000060051650599     0.0000000106147378342     0.0000000160788295278     0.0000000217913381993     0.0000000268151661086     0.0000000300278584332     0.0000000303936013294     0.0000000272665031671     0.0000000206171114508     0.0000000111085358746     -0.0000000000013982651 
    -0.0000000000009405674     -0.0000000126300938270     -0.0000000233865413869     -0.0000000308469041800     -0.0000000343296045197     -0.0000000339541399037     -0.0000000304883238687     -0.0000000250653627969     -0.0000000188702256212     -0.0000000128866776957     -0.0000000077682979406     -0.0000000038412682083     -0.0000000011836654193     0.0000000002917002501     0.0000000007843984518     0.0000000005750699490     0.0000000000000793392     -0.0000000005750141324     -0.0000000007846217225     -0.0000000002923076571     0.0000000011826457995     0.0000000038398665669     0.0000000077665828122     0.0000000128847442175     0.0000000188681831715     0.0000000250633125589     0.0000000304863320658     0.0000000339522237849     0.0000000343277416586     0.0000000308450579666     0.0000000233846850094     0.0000000126282203691     -0.0000000000009405674 
    -0.0000000000004734801     -0.0000000136468359213     -0.0000000252170443754     -0.0000000331717404980     -0.0000000368310643732     -0.0000000363962695082     -0.0000000327310981550     -0.0000000270349286168     -0.0000000205263692386     -0.0000000142113525354     -0.0000000087705075957     -0.0000000045598333942     -0.0000000016766713466     -0.0000000000336903142     0.0000000005846216720     0.0000000004789602736     0.0000000000000552275     -0.0000000004789010322     -0.0000000005847010954     0.0000000000334205601     0.0000000016761974004     0.0000000045591689244     0.0000000087696840505     0.0000000142104147559     0.0000000205253707995     0.0000000270339208499     0.0000000327301156706     0.0000000363953218323     0.0000000368301400591     0.0000000331708204048     0.0000000252161147281     0.0000000136458941670     -0.0000000000004734801 
    -0.0000000000000000000     -0.0000000140066891075     -0.0000000258611521962     -0.0000000339820665271     -0.0000000376928957094     -0.0000000372279104779     -0.0000000334874854646     -0.0000000276945613381     -0.0000000210780601972     -0.0000000146499427043     -0.0000000090992708122     -0.0000000047921686829     -0.0000000018328291630     -0.0000000001342170168     0.0000000005243510837     0.0000000004504144760     0.0000000000000000000     -0.0000000004504144760     -0.0000000005243510837     0.0000000001342170168     0.0000000018328291630     0.0000000047921686829     0.0000000090992708122     0.0000000146499427043     0.0000000210780601972     0.0000000276945613381     0.0000000334874854646     0.0000000372279104779     0.0000000376928957094     0.0000000339820665271     0.0000000258611521962     0.0000000140066891075     -0.0000000000000000000 
    -0.0000000000000000000     -0.0000000000000000000     -0.0000000000000000000     -0.0000000000000000000     0.0000000000000000000     0.0000000000000000000     0.0000000000000000000     0.0000000000000000000     0.0000000000000000000     0.0000000000000000000     0.0000000000000000000     0.0000000000000000000     0.0000000000000000000     0.0000000000000000000     -0.0000000000000000000     -0.0000000000000000000     -0.0000000000000000000     -0.0000000000000000000     -0.0000000000000000000     -0.0000000000000000000     -0.0000000000000000000     0.0000000000000000000     0.0000000000000000000     -0.0000000000000000000     0.0000000000000000000     0.0000000000000000000     0.0000000000000000000     0.0000000000000000000     0.0000000000000000000     -0.0000000000000000000     -0.0000000000000000000     -0.0000000000000000000     -0.0000000000000000000 
    0.0000000000004866589     0.0000000000004838431     0.0000000000004772590     0.0000000000004718829     0.0000000000004735454     0.0000000000004849537     0.0000000000005020342     0.0000000000005139536     0.0000000000005079851     0.0000000000004759720     0.0000000000004173047     0.0000000000003367776     0.0000000000002410696     0.0000000000001386615     0.0000000000000429752     -0.0000000000000269769     -0.0000000000000528703     -0.0000000000000269769     0.0000000000000429752     0.0000000000001386615     0.0000000000002410696     0.0000000000003367776     0.0000000000004173047     0.0000000000004759720     0.0000000000005079851     0.0000000000005139536     0.0000000000005020342     0.0000000000004849537     0.0000000000004735454     0.0000000000004718829     0.0000000000004772590     0.0000000000004838431     0.0000000000004866589 
    0.0000000000009662279     0.0000000000009620942     0.0000000000009528218     0.0000000000009469222     0.0000000000009546365     0.0000000000009808433     0.0000000000010180300     0.0000000000010457583     0.0000000000010392487     0.0000000000009814268     0.0000000000008691428     0.0000000000007103018     0.0000000000005181740     0.0000000000003111879     0.0000000000001178716     -0.0000000000000230325     -0.0000000000000750746     -0.0000000000000230325     0.0000000000001178716     0.0000000000003111879     0.0000000000005181740     0.0000000000007103018     0.0000000000008691428     0.0000000000009814268     0.0000000000010392487     0.0000000000010457583     0.0000000000010180300     0.0000000000009808433     0.0000000000009546365     0.0000000000009469222     0.0000000000009528218     0.0000000000009620942     0.0000000000009662279 
    0.0000000000014352789     0.0000000000014319903     0.0000000000014255738     0.0000000000014257238     0.0000000000014446644     0.0000000000014886277     0.0000000000015484018     0.0000000000015973491     0.0000000000016010829     0.0000000000015326556     0.0000000000013820878     0.0000000000011556411     0.0000000000008712064     0.0000000000005587683     0.0000000000002651725     0.0000000000000512509     -0.0000000000000276448     0.0000000000000512509     0.0000000000002651725     0.0000000000005587683     0.0000000000008712064     0.0000000000011556411     0.0000000000013820878     0.0000000000015326556     0.0000000000016010829     0.0000000000015973491     0.0000000000015484018     0.0000000000014886277     0.0000000000014446644     0.0000000000014257238     0.0000000000014255738     0.0000000000014319903     0.0000000000014352789 
    0.0000000000018926988     0.0000000000018919769     0.0000000000018926783     0.0000000000019033199     0.0000000000019355798     0.0000000000019965442     0.0000000000020785606     0.0000000000021548817     0.0000000000021863892     0.0000000000021355384     0.0000000000019784200     0.0000000000017101854     0.0000000000013472971     0.0000000000009316846     0.0000000000005336537     0.0000000000002418820     0.0000000000001341700     0.0000000000002418820     0.0000000000005336537     0.0000000000009316846     0.0000000000013472971     0.0000000000017101854     0.0000000000019784200     0.0000000000021355384     0.0000000000021863892     0.0000000000021548817     0.0000000000020785606     0.0000000000019965442     0.0000000000019355798     0.0000000000019033199     0.0000000000018926783     0.0000000000018919769     0.0000000000018926988 
    0.0000000000023333374     0.0000000000023357237     0.0000000000023447069     0.0000000000023663264     0.0000000000024103520     0.0000000000024852782     0.0000000000025893646     0.0000000000027031217     0.0000000000027886631     0.0000000000027969464     0.0000000000026804489     0.0000000000024089981     0.0000000000019870887     0.0000000000014678314     0.0000000000009532726     0.0000000000005710443     0.0000000000004294096     0.0000000000005710443     0.0000000000009532726     0.0000000000014678314     0.0000000000019870887     0.0000000000024089981     0.0000000000026804489     0.0000000000027969464     0.0000000000027886631     0.0000000000027031217     0.0000000000025893646     0.0000000000024852782     0.0000000000024103520     0.0000000000023663264     0.0000000000023447069     0.0000000000023357237     0.0000000000023333374 
    0.0000000000027415814     0.0000000000027463643     0.0000000000027617733     0.0000000000027919685     0.0000000000028456425     0.0000000000029345605     0.0000000000030667915     0.0000000000032354772     0.0000000000034076550     0.0000000000035202710     0.0000000000034912243     0.0000000000032493155     0.0000000000027756194     0.0000000000021158899     0.0000000000013981504     0.0000000000008461634     0.0000000000006394303     0.0000000000008461634     0.0000000000013981504     0.0000000000021158899     0.0000000000027756194     0.0000000000032493155     0.0000000000034912243     0.0000000000035202710     0.0000000000034076550     0.0000000000032354772     0.0000000000030667915     0.0000000000029345605     0.0000000000028456425     0.0000000000027919685     0.0000000000027617733     0.0000000000027463643     0.0000000000027415814 
    0.0000000000030902178     0.0000000000030959369     0.0000000000031143796     0.0000000000031503206     0.0000000000032143455     0.0000000000033240115     0.0000000000034986555     0.0000000000037439409     0.0000000000040293251     0.0000000000042717205     0.0000000000043450344     0.0000000000040763417     0.0000000000033350133     0.0000000000022743258     0.0000000000011741169     0.0000000000003495749     0.0000000000000444012     0.0000000000003495749     0.0000000000011741169     0.0000000000022743258     0.0000000000033350133     0.0000000000040763417     0.0000000000043450344     0.0000000000042717205     0.0000000000040293251     0.0000000000037439409     0.0000000000034986555     0.0000000000033240115     0.0000000000032143455     0.0000000000031503206     0.0000000000031143796     0.0000000000030959369     0.0000000000030902178 
    0.0000000000033458296     0.0000000000033510268     0.0000000000033693293     0.0000000000034092738     0.0000000000034869947     0.0000000000036276976     0.0000000000038597089     0.0000000000041937890     0.0000000000045908321     0.0000000000049368352     0.0000000000049000175     0.0000000000042504956     0.0000000000030268330     0.0000000000014542365     -0.0000000000000976193     -0.0000000000012298451     -0.0000000000016437481     -0.0000000000012298451     -0.0000000000000976193     0.0000000000014542365     0.0000000000030268330     0.0000000000042504956     0.0000000000049000175     0.0000000000049368352     0.0000000000045908321     0.0000000000041937890     0.0000000000038597089     0.0000000000036276976     0.0000000000034869947     0.0000000000034092738     0.0000000000033693293     0.0000000000033510268     0.0000000000033458296 
    0.0000000000034768552     0.0000000000034806973     0.0000000000034969878     0.0000000000035398457     0.0000000000036330519     0.0000000000038092525     0.0000000000040997930     0.0000000000045070196     0.0000000000049649601     0.0000000000051156754     0.0000000000046313951     0.0000000000034364646     0.0000000000016372286     -0.0000000000004578181     -0.0000000000024113394     -0.0000000000037895888     -0.0000000000042854328     -0.0000000000037895888     -0.0000000000024113394     -0.0000000000004578181     0.0000000000016372286     0.0000000000034364646     0.0000000000046313951     0.0000000000051156754     0.0000000000049649601     0.0000000000045070196     0.0000000000040997930     0.0000000000038092525     0.0000000000036330519     0.0000000000035398457     0.0000000000034969878     0.0000000000034806973     0.0000000000034768552 
    0.0000000000034589375     0.0000000000034614394     0.0000000000034753079     0.0000000000035193251     0.0000000000036237170     0.0000000000038254307     0.0000000000041506934     0.0000000000045788841     0.0000000000048567066     0.0000000000045354738     0.0000000000034621642     0.0000000000016472174     -0.0000000000006870879     -0.0000000000031474552     -0.0000000000052869352     -0.0000000000067281951     -0.0000000000072347538     -0.0000000000067281951     -0.0000000000052869352     -0.0000000000031474552     -0.0000000000006870879     0.0000000000016472174     0.0000000000034621642     0.0000000000045354738     0.0000000000048567066     0.0000000000045788841     0.0000000000041506934     0.0000000000038254307     0.0000000000036237170     0.0000000000035193251     0.0000000000034753079     0.0000000000034614394     0.0000000000034589375 
    0.0000000000032757265     0.0000000000032775230     0.0000000000032895293     0.0000000000033317962     0.0000000000034364970     0.0000000000036392442     0.0000000000039537421     0.0000000000042868135     0.0000000000041627294     0.0000000000033092366     0.0000000000016409058     -0.0000000000007012504     -0.0000000000033567752     -0.0000000000058758067     -0.0000000000078790452     -0.0000000000091403454     -0.0000000000095675616     -0.0000000000091403454     -0.0000000000078790452     -0.0000000000058758067     -0.0000000000033567752     -0.0000000000007012504     0.0000000000016409058     0.0000000000033092366     0.0000000000041627294     0.0000000000042868135     0.0000000000039537421     0.0000000000036392442     0.0000000000034364970     0.0000000000033317962     0.0000000000032895293     0.0000000000032775230     0.0000000000032757265 
    0.0000000000029181794     0.0000000000029200088     0.0000000000029309011     0.0000000000029681211     0.0000000000030600435     0.0000000000032350286     0.0000000000034910739     0.0000000000035839806     0.0000000000030826592     0.0000000000017968408     -0.0000000000002766431     -0.0000000000028667943     -0.0000000000055067378     -0.0000000000077461145     -0.0000000000093320197     -0.0000000000102314105     -0.0000000000105168640     -0.0000000000102314105     -0.0000000000093320197     -0.0000000000077461145     -0.0000000000055067378     -0.0000000000028667943     -0.0000000000002766431     0.0000000000017968408     0.0000000000030826592     0.0000000000035839806     0.0000000000034910739     0.0000000000032350286     0.0000000000030600435     0.0000000000029681211     0.0000000000029309011     0.0000000000029200088     0.0000000000029181794 
    0.0000000000023865920     0.0000000000023887754     0.0000000000023987050     0.0000000000024282508     0.0000000000024978863     0.0000000000026255126     0.0000000000027859760     0.0000000000026513012     0.0000000000019304745     0.0000000000004786654     -0.0000000000016379806     -0.0000000000040782163     -0.0000000000063535322     -0.0000000000080765891     -0.0000000000091295955     -0.0000000000096326877     -0.0000000000097723419     -0.0000000000096326877     -0.0000000000091295955     -0.0000000000080765891     -0.0000000000063535322     -0.0000000000040782163     -0.0000000000016379806     0.0000000000004786654     0.0000000000019304745     0.0000000000026513012     0.0000000000027859760     0.0000000000026255126     0.0000000000024978863     0.0000000000024282508     0.0000000000023987050     0.0000000000023887754     0.0000000000023865920 
    0.0000000000016961310     0.0000000000016983283     0.0000000000017064216     0.0000000000017267266     0.0000000000017710409     0.0000000000018477792     0.0000000000019092496     0.0000000000016848238     0.0000000000009899549     -0.0000000000002676624     -0.0000000000019964207     -0.0000000000038839312     -0.0000000000055270854     -0.0000000000066494866     -0.0000000000072272245     -0.0000000000074336452     -0.0000000000074734851     -0.0000000000074336452     -0.0000000000072272245     -0.0000000000066494866     -0.0000000000055270854     -0.0000000000038839312     -0.0000000000019964207     -0.0000000000002676624     0.0000000000009899549     0.0000000000016848238     0.0000000000019092496     0.0000000000018477792     0.0000000000017710409     0.0000000000017267266     0.0000000000017064216     0.0000000000016983283     0.0000000000016961310 
    0.0000000000008821165     0.0000000000008835410     0.0000000000008882191     0.0000000000008985233     0.0000000000009193814     0.0000000000009534274     0.0000000000009626677     0.0000000000008011458     0.0000000000003777785     -0.0000000000003505688     -0.0000000000013202655     -0.0000000000023456221     -0.0000000000032000205     -0.0000000000037417978     -0.0000000000039801513     -0.0000000000040346404     -0.0000000000040349037     -0.0000000000040346404     -0.0000000000039801513     -0.0000000000037417978     -0.0000000000032000205     -0.0000000000023456221     -0.0000000000013202655     -0.0000000000003505688     0.0000000000003777785     0.0000000000008011458     0.0000000000009626677     0.0000000000009534274     0.0000000000009193814     0.0000000000008985233     0.0000000000008882191     0.0000000000008835410     0.0000000000008821165 
    0.0000000000000000000     0.0000000000000000000     -0.0000000000000000000     -0.0000000000000000000     -0.0000000000000000000     -0.0000000000000000000     -0.0000000000000000000     -0.0000000000000000000     -0.0000000000000000000     -0.0000000000000000000     0.0000000000000000000     0.0000000000000000000     0.0000000000000000000     0.0000000000000000000     0.0000000000000000000     0.0000000000000000000     0.0000000000000000000     0.0000000000000000000     0.0000000000000000000     0.0000000000000000000     0.0000000000000000000     0.0000000000000000000     0.0000000000000000000     0.0000000000000000000     -0.0000000000000000000     -0.0000000000000000000     -0.0000000000000000000     -0.0000000000000000000     -0.0000000000000000000     -0.0000000000000000000     0.0000000000000000000     -0.0000000000000000000     0.0000000000000000000 
    -0.0000000000008821165     -0.0000000000008835410     -0.0000000000008882191     -0.0000000000008985233     -0.0000000000009193814     -0.0000000000009534274     -0.0000000000009626677     -0.0000000000008011458     -0.0000000000003777785     0.0000000000003505688     0.0000000000013202655     0.0000000000023456221     0.0000000000032000205     0.0000000000037417978     0.0000000000039801513     0.0000000000040346404     0.0000000000040349037     0.0000000000040346404     0.0000000000039801513     0.0000000000037417978     0.0000000000032000205     0.0000000000023456221     0.0000000000013202655     0.0000000000003505688     -0.0000000000003777785     -0.0000000000008011458     -0.0000000000009626677     -0.0000000000009534274     -0.0000000000009193814     -0.0000000000008985233     -0.0000000000008882191     -0.0000000000008835410     -0.0000000000008821165 
    -0.0000000000016961310     -0.0000000000016983283     -0.0000000000017064216     -0.0000000000017267266     -0.0000000000017710409     -0.0000000000018477792     -0.0000000000019092496     -0.0000000000016848238     -0.0000000000009899549     0.0000000000002676624     0.0000000000019964207     0.0000000000038839312     0.0000000000055270854     0.0000000000066494866     0.0000000000072272245     0.0000000000074336452     0.0000000000074734851     0.0000000000074336452     0.0000000000072272245     0.0000000000066494866     0.0000000000055270854     0.0000000000038839312     0.0000000000019964207     0.0000000000002676624     -0.0000000000009899549     -0.0000000000016848238     -0.0000000000019092496     -0.0000000000018477792     -0.0000000000017710409     -0.0000000000017267266     -0.0000000000017064216     -0.0000000000016983283     -0.0000000000016961310 
    -0.0000000000023865920     -0.0000000000023887754     -0.0000000000023987050     -0.0000000000024282508     -0.0000000000024978863     -0.0000000000026255126     -0.0000000000027859760     -0.0000000000026513012     -0.0000000000019304745     -0.0000000000004786654     0.0000000000016379806     0.0000000000040782163     0.0000000000063535322     0.0000000000080765891     0.0000000000091295955     0.0000000000096326877     0.0000000000097723419     0.0000000000096326877     0.0000000000091295955     0.0000000000080765891     0.0000000000063535322     0.0000000000040782163     0.0000000000016379806     -0.0000000000004786654     -0.0000000000019304745     -0.0000000000026513012     -0.0000000000027859760     -0.0000000000026255126     -0.0000000000024978863     -0.0000000000024282508     -0.0000000000023987050     -0.0000000000023887754     -0.0000000000023865920 
    -0.0000000000029181794     -0.0000000000029200088     -0.0000000000029309011     -0.0000000000029681211     -0.0000000000030600435     -0.0000000000032350286     -0.0000000000034910739     -0.0000000000035839806     -0.0000000000030826593     -0.0000000000017968408     0.0000000000002766431     0.0000000000028667943     0.0000000000055067378     0.0000000000077461145     0.0000000000093320197     0.0000000000102314105     0.0000000000105168640     0.0000000000102314105     0.0000000000093320197     0.0000000000077461145     0.0000000000055067378     0.0000000000028667943     0.0000000000002766431     -0.0000000000017968408     -0.0000000000030826592     -0.0000000000035839806     -0.0000000000034910739     -0.0000000000032350286     -0.0000000000030600435     -0.0000000000029681211     -0.0000000000029309011     -0.0000000000029200088     -0.0000000000029181794 
    -0.0000000000032757265     -0.0000000000032775230     -0.0000000000032895293     -0.0000000000033317962     -0.0000000000034364970     -0.0000000000036392442     -0.0000000000039537421     -0.0000000000042868135     -0.0000000000041627294     -0.0000000000033092366     -0.0000000000016409058     0.0000000000007012504     0.0000000000033567752     0.0000000000058758067     0.0000000000078790452     0.0000000000091403454     0.0000000000095675616     0.0000000000091403454     0.0000000000078790452     0.0000000000058758067     0.0000000000033567752     0.0000000000007012504     -0.0000000000016409058     -0.0000000000033092366     -0.0000000000041627294     -0.0000000000042868135     -0.0000000000039537421     -0.0000000000036392442     -0.0000000000034364970     -0.0000000000033317962     -0.0000000000032895293     -0.0000000000032775230     -0.0000000000032757265 
    -0.0000000000034589375     -0.0000000000034614394     -0.0000000000034753079     -0.0000000000035193251     -0.0000000000036237170     -0.0000000000038254307     -0.0000000000041506934     -0.0000000000045788841     -0.0000000000048567066     -0.0000000000045354738     -0.0000000000034621642     -0.0000000000016472174     0.0000000000006870879     0.0000000000031474552     0.0000000000052869352     0.0000000000067281951     0.0000000000072347538     0.0000000000067281951     0.0000000000052869352     0.0000000000031474552     0.0000000000006870879     -0.0000000000016472174     -0.0000000000034621642     -0.0000000000045354738     -0.0000000000048567066     -0.0000000000045788841     -0.0000000000041506934     -0.0000000000038254307     -0.0000000000036237170     -0.0000000000035193251     -0.0000000000034753079     -0.0000000000034614394     -0.0000000000034589375 
    -0.0000000000034768552     -0.0000000000034806973     -0.0000000000034969878     -0.0000000000035398457     -0.0000000000036330519     -0.0000000000038092525     -0.0000000000040997930     -0.0000000000045070196     -0.0000000000049649601     -0.0000000000051156754     -0.0000000000046313951     -0.0000000000034364646     -0.0000000000016372286     0.0000000000004578181     0.0000000000024113394     0.0000000000037895888     0.0000000000042854328     0.0000000000037895888     0.0000000000024113394     0.0000000000004578181     -0.0000000000016372286     -0.0000000000034364646     -0.0000000000046313951     -0.0000000000051156754     -0.0000000000049649601     -0.0000000000045070196     -0.0000000000040997930     -0.0000000000038092525     -0.0000000000036330519     -0.0000000000035398457     -0.0000000000034969878     -0.0000000000034806973     -0.0000000000034768552 
    -0.0000000000033458296     -0.0000000000033510268     -0.0000000000033693293     -0.0000000000034092738     -0.0000000000034869947     -0.0000000000036276976     -0.0000000000038597089     -0.0000000000041937890     -0.0000000000045908321     -0.0000000000049368352     -0.0000000000049000175     -0.0000000000042504956     -0.0000000000030268330     -0.0000000000014542365     0.0000000000000976193     0.0000000000012298451     0.0000000000016437481     0.0000000000012298451     0.0000000000000976193     -0.0000000000014542365     -0.0000000000030268330     -0.0000000000042504956     -0.0000000000049000175     -0.0000000000049368352     -0.0000000000045908321     -0.0000000000041937890     -0.0000000000038597089     -0.0000000000036276976     -0.0000000000034869947     -0.0000000000034092738     -0.0000000000033693293     -0.0000000000033510268     -0.0000000000033458296 
    -0.0000000000030902178     -0.0000000000030959369     -0.0000000000031143796     -0.0000000000031503206     -0.0000000000032143455     -0.0000000000033240115     -0.0000000000034986555     -0.0000000000037439409     -0.0000000000040293251     -0.0000000000042717205     -0.0000000000043450344     -0.0000000000040763417     -0.0000000000033350133     -0.0000000000022743258     -0.0000000000011741169     -0.0000000000003495749     -0.0000000000000444012     -0.0000000000003495749     -0.0000000000011741169     -0.0000000000022743258     -0.0000000000033350133     -0.0000000000040763417     -0.0000000000043450344     -0.0000000000042717205     -0.0000000000040293251     -0.0000000000037439409     -0.0000000000034986555     -0.0000000000033240115     -0.0000000000032143455     -0.0000000000031503206     -0.0000000000031143796     -0.0000000000030959369     -0.0000000000030902178 
    -0.0000000000027415814     -0.0000000000027463643     -0.0000000000027617733     -0.0000000000027919685     -0.0000000000028456425     -0.0000000000029345605     -0.0000000000030667915     -0.0000000000032354772     -0.0000000000034076550     -0.0000000000035202710     -0.0000000000034912243     -0.0000000000032493155     -0.0000000000027756194     -0.0000000000021158899     -0.0000000000013981504     -0.0000000000008461634     -0.0000000000006394303     -0.0000000000008461634     -0.0000000000013981504     -0.0000000000021158899     -0.0000000000027756194     -0.0000000000032493155     -0.0000000000034912243     -0.0000000000035202710     -0.0000000000034076550     -0.0000000000032354772     -0.0000000000030667915     -0.0000000000029345605     -0.0000000000028456425     -0.0000000000027919685     -0.0000000000027617733     -0.0000000000027463643     -0.0000000000027415814 
    -0.0000000000023333374     -0.0000000000023357237     -0.0000000000023447069     -0.0000000000023663264     -0.0000000000024103520     -0.0000000000024852782     -0.0000000000025893646     -0.0000000000027031217     -0.0000000000027886631     -0.0000000000027969464     -0.0000000000026804489     -0.0000000000024089981     -0.0000000000019870887     -0.0000000000014678314     -0.0000000000009532726     -0.0000000000005710443     -0.0000000000004294096     -0.0000000000005710443     -0.0000000000009532726     -0.0000000000014678314     -0.0000000000019870887     -0.0000000000024089981     -0.0000000000026804489     -0.0000000000027969464     -0.0000000000027886631     -0.0000000000027031217     -0.0000000000025893646     -0.0000000000024852782     -0.0000000000024103520     -0.0000000000023663264     -0.0000000000023447069     -0.0000000000023357237     -0.0000000000023333374 
    -0.0000000000018926988     -0.0000000000018919769     -0.0000000000018926783     -0.0000000000019033199     -0.0000000000019355798     -0.0000000000019965442     -0.0000000000020785606     -0.0000000000021548817     -0.0000000000021863892     -0.0000000000021355384     -0.0000000000019784200     -0.0000000000017101854     -0.0000000000013472971     -0.0000000000009316846     -0.0000000000005336537     -0.0000000000002418820     -0.0000000000001341700     -0.0000000000002418820     -0.0000000000005336537     -0.0000000000009316846     -0.0000000000013472971     -0.0000000000017101854     -0.0000000000019784200     -0.0000000000021355384     -0.0000000000021863892     -0.0000000000021548817     -0.0000000000020785606     -0.0000000000019965442     -0.0000000000019355798     -0.0000000000019033199     -0.0000000000018926783     -0.0000000000018919769     -0.0000000000018926988 
    -0.0000000000014352789     -0.0000000000014319903     -0.0000000000014255738     -0.0000000000014257238     -0.0000000000014446644     -0.0000000000014886277     -0.0000000000015484018     -0.0000000000015973491     -0.0000000000016010829     -0.0000000000015326556     -0.0000000000013820878     -0.0000000000011556411     -0.0000000000008712064     -0.0000000000005587683     -0.0000000000002651725     -0.0000000000000512509     0.0000000000000276448     -0.0000000000000512509     -0.0000000000002651725     -0.0000000000005587683     -0.0000000000008712064     -0.0000000000011556411     -0.0000000000013820878     -0.0000000000015326556     -0.0000000000016010829     -0.0000000000015973491     -0.0000000000015484018     -0.0000000000014886277     -0.0000000000014446644     -0.0000000000014257238     -0.0000000000014255738     -0.0000000000014319903     -0.0000000000014352789 
    -0.0000000000009662279     -0.0000000000009620942     -0.0000000000009528218     -0.0000000000009469222     -0.0000000000009546365     -0.0000000000009808433     -0.0000000000010180300     -0.0000000000010457583     -0.0000000000010392487     -0.0000000000009814268     -0.0000000000008691428     -0.0000000000007103018     -0.0000000000005181740     -0.0000000000003111879     -0.0000000000001178716     0.0000000000000230325     0.0000000000000750746     0.0000000000000230325     -0.0000000000001178716     -0.0000000000003111879     -0.0000000000005181740     -0.0000000000007103018     -0.0000000000008691428     -0.0000000000009814268     -0.0000000000010392487     -0.0000000000010457583     -0.0000000000010180300     -0.0000000000009808433     -0.0000000000009546365     -0.0000000000009469222     -0.0000000000009528218     -0.0000000000009620942     -0.0000000000009662279 
    -0.0000000000004866589     -0.0000000000004838431     -0.0000000000004772590     -0.0000000000004718829     -0.0000000000004735454     -0.0000000000004849537     -0.0000000000005020342     -0.0000000000005139536     -0.0000000000005079851     -0.0000000000004759720     -0.0000000000004173047     -0.0000000000003367776     -0.0000000000002410696     -0.0000000000001386615     -0.0000000000000429752     0.0000000000000269769     0.0000000000000528703     0.0000000000000269769     -0.0000000000000429752     -0.0000000000001386615     -0.0000000000002410696     -0.0000000000003367776     -0.0000000000004173047     -0.0000000000004759720     -0.0000000000005079851     -0.0000000000005139536     -0.0000000000005020342     -0.0000000000004849537     -0.0000000000004735454     -0.0000000000004718829     -0.0000000000004772590     -0.0000000000004838431     -0.0000000000004866589 
    -0.0000000000000000000     -0.0000000000000000000     -0.0000000000000000000     -0.0000000000000000000     0.0000000000000000000     0.0000000000000000000     0.0000000000000000000     0.0000000000000000000     0.0000000000000000000     0.0000000000000000000     0.0000000000000000000     0.0000000000000000000     0.0000000000000000000     0.0000000000000000000     -0.0000000000000000000     -0.0000000000000000000     -0.0000000000000000000     -0.0000000000000000000     -0.0000000000000000000     -0.0000000000000000000     -0.0000000000000000000     0.0000000000000000000     0.0000000000000000000     -0.0000000000000000000     0.0000000000000000000     0.0000000000000000000     0.0000000000000000000     0.0000000000000000000     0.0000000000000000000     -0.0000000000000000000     -0.0000000000000000000     -0.0000000000000000000     -0.0000000000000000000 
    0.0000000000000000000     0.0000000140066891075     0.0000000258611521962     0.0000000339820665271     0.0000000376928957094     0.0000000372279104779     0.0000000334874854646     0.0000000276945613381     0.0000000210780601972     0.0000000146499427043     0.0000000090992708122     0.0000000047921686829     0.0000000018328291630     0.0000000001342170168     -0.0000000005243510837     -0.0000000004504144760     -0.0000000000000000000     0.0000000004504144760     0.0000000005243510837     -0.0000000001342170168     -0.0000000018328291630     -0.0000000047921686829     -0.0000000090992708122     -0.0000000146499427043     -0.0000000210780601972     -0.0000000276945613381     -0.0000000334874854646     -0.0000000372279104779     -0.0000000376928957094     -0.0000000339820665271     -0.0000000258611521962     -0.0000000140066891075     0.0000000000000000000 
    0.0000000000004734801     0.0000000136468359213     0.0000000252170443754     0.0000000331717404980     0.0000000368310643732     0.0000000363962695082     0.0000000327310981550     0.0000000270349286168     0.0000000205263692386     0.0000000142113525354     0.0000000087705075957     0.0000000045598333942     0.0000000016766713466     0.0000000000336903142     -0.0000000005846216720     -0.0000000004789602736     -0.0000000000000552275     0.0000000004789010322     0.0000000005847010954     -0.0000000000334205601     -0.0000000016761974004     -0.0000000045591689244     -0.0000000087696840505     -0.0000000142104147559     -0.0000000205253707995     -0.0000000270339208499     -0.0000000327301156706     -0.0000000363953218323     -0.0000000368301400591     -0.0000000331708204048     -0.0000000252161147281     -0.0000000136458941670     0.0000000000004734801 
    0.0000000000009405674     0.0000000126300938270     0.0000000233865413869     0.0000000308469041800     0.0000000343296045197     0.0000000339541399037     0.0000000304883238687     0.0000000250653627969     0.0000000188702256212     0.0000000128866776957     0.0000000077682979406     0.0000000038412682083     0.0000000011836654193     -0.0000000002917002501     -0.0000000007843984518     -0.0000000005750699490     -0.0000000000000793392     0.0000000005750141324     0.0000000007846217225     0.0000000002923076571     -0.0000000011826457995     -0.0000000038398665669     -0.0000000077665828122     -0.0000000128847442175     -0.0000000188681831715     -0.0000000250633125589     -0.0000000304863320658     -0.0000000339522237849     -0.0000000343277416586     -0.0000000308450579666     -0.0000000233846850094     -0.0000000126282203691     0.0000000000009405674 
    0.0000000000013982651     0.0000000111113261908     0.0000000206198898113     0.0000000272692827534     0.0000000303964194754     0.0000000300307652550     0.0000000268181943878     0.0000000217944688216     0.0000000160819751831     0.0000000106177562027     0.0000000060078914431     0.0000000025332976989     0.0000000002453229510     -0.0000000009405708286     -0.0000000011983722660     -0.0000000007789046030     -0.0000000000000333409     0.0000000007789936907     0.0000000011988845219     0.0000000009416655314     -0.0000000002436072253     -0.0000000025310174747     -0.0000000060051650599     -0.0000000106147378342     -0.0000000160788295278     -0.0000000217913381993     -0.0000000268151661086     -0.0000000300278584332     -0.0000000303936013294     -0.0000000272665031671     -0.0000000206171114508     -0.0000000111085358746     0.0000000000013982651 
    0.0000000000018456200     0.0000000092565795968     0.0000000171871532585     0.0000000227234601063     0.0000000252567993141     0.0000000247569851287     0.0000000217546728692     0.0000000171687271290     0.0000000120269047225     0.0000000071931117703     0.0000000032145144867     0.0000000003269150035     -0.0000000014417960446     -0.0000000021718667511     -0.0000000020122076960     -0.0000000011865557214     0.0000000000001277401     0.0000000011870234935     0.0000000020132514389     0.0000000021736980653     0.0000000014444509331     -0.0000000003235421643     -0.0000000032106148698     -0.0000000071889094477     -0.0000000120226120780     -0.0000000171645063848     -0.0000000217506100527     -0.0000000247530884616     -0.0000000252530247224     -0.0000000227197493272     -0.0000000171834629101     -0.0000000092528900256     0.0000000000018456200 
    0.0000000000022776613     0.0000000071802434384     0.0000000132775818624     0.0000000174122675584     0.0000000190675717073     0.0000000181992620519     0.0000000152425564039     0.0000000109848013007     0.0000000063327473834     0.0000000020710508310     -0.0000000012859998572     -0.0000000035078448682     -0.0000000045669852073     -0.0000000045493542284     -0.0000000036131907206     -0.0000000019918120037     0.0000000000004253172     0.0000000019929409345     0.0000000036150715001     0.0000000045522486721     0.0000000045709032261     0.0000000035125927506     0.0000000012912769505     -0.0000000020655539863     -0.0000000063272785500     -0.0000000109795118020     -0.0000000152374989803     -0.0000000181944140661     -0.0000000190628723375     -0.0000000174076534044     -0.0000000132730075681     -0.0000000071756843872     0.0000000000022776613 
    0.0000000000026793145     0.0000000049379601976     0.0000000089893907540     0.0000000114477088123     0.0000000119079180620     0.0000000103389773135     0.0000000070844602418     0.0000000027811897532     -0.0000000017892570899     -0.0000000058686296258     -0.0000000088617369793     -0.0000000104191257797     -0.0000000104549287219     -0.0000000092774565018     -0.0000000071810542387     -0.0000000039410137695     0.0000000000006688932     0.0000000039427531594     0.0000000071838653832     0.0000000092816585561     0.0000000104604078871     0.0000000104255269814     0.0000000088686015536     0.0000000058755372506     0.0000000017959297703     -0.0000000027748664672     -0.0000000070784756855     -0.0000000103332557179     -0.0000000119023704104     -0.0000000114422627730     -0.0000000089839987481     -0.0000000049325939440     0.0000000000026793145 
    0.0000000000030242894     0.0000000025649620353     0.0000000043937175325     0.0000000049208508136     0.0000000038338428352     0.0000000010906636182     -0.0000000030960939222     -0.0000000082692243645     -0.0000000137309503801     -0.0000000185824954798     -0.0000000218657198354     -0.0000000238839883043     -0.0000000251938293376     -0.0000000230044512083     -0.0000000171972993333     -0.0000000090798270759     0.0000000000001495649     0.0000000090807179848     0.0000000171997876561     0.0000000230090656959     0.0000000252004817746     0.0000000238920436268     0.0000000218742553932     0.0000000185908654048     0.0000000137388280691     0.0000000082765316287     0.0000000031029151818     -0.0000000010841849371     -0.0000000038275752446     -0.0000000049147017725     -0.0000000043876307906     -0.0000000025589048092     0.0000000000030242894 
    0.0000000000032799966     0.0000000001172698455     -0.0000000003986000993     -0.0000000020287600791     -0.0000000050696588533     -0.0000000096737597575     -0.0000000158613413289     -0.0000000233979356837     -0.0000000315549886840     -0.0000000389354415007     -0.0000000487331287803     -0.0000000573170350922     -0.0000000576502205591     -0.0000000488540836112     -0.0000000340863005354     -0.0000000171329722686     -0.0000000000014339886     0.0000000171309069832     0.0000000340864281745     0.0000000488572082843     0.0000000576563659807     0.0000000573255055139     0.0000000487427951235     0.0000000389451075565     0.0000000315639531620     0.0000000234061119081     0.0000000158688614525     0.0000000096808297206     0.0000000050764614963     0.0000000020354212387     0.0000000004051941900     -0.0000000001107029541     0.0000000000032799966 
    0.0000000000034148874     -0.0000000023204864868     -0.0000000052285866222     -0.0000000092108401191     -0.0000000146879844761     -0.0000000221053566664     -0.0000000318909705237     -0.0000000440928309038     -0.0000000577277906636     -0.0000000794607001605     -0.0000001036837549991     -0.0000001150974472858     -0.0000001077082625515     -0.0000000850273116398     -0.0000000555684988588     -0.0000000265612658454     -0.0000000000039673031     0.0000000265542954370     0.0000000555642039486     0.0000000850267961800     0.0000001077117792968     0.0000001151043989079     0.0000001036929524168     0.0000000794707585918     0.0000000577374816237     0.0000000441016120671     0.0000000318989557084     0.0000000221127818957     0.0000000146950775731     0.0000000092177652306     0.0000000052354416990     0.0000000023273199530     0.0000000000034148874 
    0.0000000000034034741     -0.0000000046621431139     -0.0000000099388768534     -0.0000000164416920264     -0.0000000249075667206     -0.0000000363262693469     -0.0000000517741700606     -0.0000000716429098441     -0.0000001033176129176     -0.0000001501847856745     -0.0000001867215915858     -0.0000001948985315042     -0.0000001713963812449     -0.0000001267928546765     -0.0000000774307784652     -0.0000000348927045555     -0.0000000000068416682     0.0000000348800120720     0.0000000774208982150     0.0000001267871308525     0.0000001713954104962     0.0000001949020400563     0.0000001867285511278     0.0000001501937499123     0.0000001033271264598     0.0000000716518289069     0.0000000517822536794     0.0000000363337284774     0.0000000249146474690     0.0000000164485858788     0.0000000099457003719     0.0000000046689508103     0.0000000000034034741 
    0.0000000000032276783     -0.0000000068502474817     -0.0000000144228265208     -0.0000000235852739527     -0.0000000356007861706     -0.0000000522827290478     -0.0000000756182400535     -0.0000001096390011815     -0.0000001749530325097     -0.0000002469145688388     -0.0000002918525991641     -0.0000002894471180731     -0.0000002410527111242     -0.0000001672473795958     -0.0000000945640269543     -0.0000000394491250816     -0.0000000000091598767     0.0000000394316495611     0.0000000945490337073     0.0000001672363030649     0.0000002410465252202     0.0000002894460540033     0.0000002918560232685     0.0000002469211624388     0.0000001749612158662     0.0000001096473675623     0.0000000756259388868     0.0000000522898259031     0.0000000356075045736     0.0000000235918064522     0.0000000144292930159     0.0000000068567021391     0.0000000000032276783 
    0.0000000000028773076     -0.0000000088540547225     -0.0000000186100047983     -0.0000000305035286574     -0.0000000465012675079     -0.0000000694752970641     -0.0000001025220176481     -0.0000001647251467520     -0.0000002646471472000     -0.0000003593410627160     -0.0000004075428408366     -0.0000003874338169761     -0.0000003071055279352     -0.0000001995741834391     -0.0000001030244779063     -0.0000000385638254969     -0.0000000000101545928     0.0000000385440904809     0.0000001030065369699     0.0000001995593699850     0.0000003070950863233     0.0000003874284910137     0.0000004075425060361     0.0000003593447016716     0.0000002646532289873     0.0000001647321543811     0.0000001025288110473     0.0000000694816027271     0.0000000465072491497     0.0000000305093493715     0.0000000186157690586     0.0000000088598088980     0.0000000000028773076 
    0.0000000000023529601     -0.0000000106301464926     -0.0000000223834277459     -0.0000000369223835483     -0.0000000570030851002     -0.0000000866594336030     -0.0000001315187033336     -0.0000002280358884982     -0.0000003592872625139     -0.0000004723224697821     -0.0000005187454755487     -0.0000004762941145814     -0.0000003612151618469     -0.0000002199136542936     -0.0000001021064734897     -0.0000000326294702508     -0.0000000000094928651     0.0000000326107757057     0.0000001020888052289     0.0000002198980849666     0.0000003612029744421     0.0000004762863531998     0.0000005187424354020     0.0000004723235077196     0.0000003592910831745     0.0000002280410751462     0.0000001315241238247     0.0000000866645451222     0.0000000570079636112     0.0000000369271429247     0.0000000223881439377     0.0000000106348531634     0.0000000000023529601 
    0.0000000000016712435     -0.0000000120799296105     -0.0000000254986843662     -0.0000000423232809232     -0.0000000660451191392     -0.0000001017614195003     -0.0000001616561739419     -0.0000002869096066929     -0.0000004429775634610     -0.0000005688433166970     -0.0000006103076739237     -0.0000005455752168004     -0.0000003989664331052     -0.0000002289802539586     -0.0000000949751859234     -0.0000000242082032970     -0.0000000000072890631     0.0000000241937177904     0.0000000949611395330     0.0000002289673733815     0.0000003989557651440     0.0000005455677538663     0.0000006103038728301     0.0000005688428575992     0.0000004429795266823     0.0000002869128996910     0.0000001616598861532     0.0000001017650109437     0.0000000660485735283     0.0000000423266618668     0.0000000255020367959     0.0000000120832737343     0.0000000000016712435 
    0.0000000000008686160     -0.0000000130507038720     -0.0000000275976432517     -0.0000000459995978045     -0.0000000722728986546     -0.0000001122631468663     -0.0000001844463840811     -0.0000003286103617508     -0.0000005005190785256     -0.0000006336823633708     -0.0000006701454170306     -0.0000005888846087441     -0.0000004202241040176     -0.0000002311001567717     -0.0000000871998846388     -0.0000000169966042609     -0.0000000000039442891     0.0000000169887241386     0.0000000871921304379     0.0000002310928890607     0.0000004202179072640     0.0000005888800811065     0.0000006701428817642     0.0000006336817063097     0.0000005005198280421     0.0000003286119251283     0.0000001844482538476     0.0000001122649972839     0.0000000722746897773     0.0000000460013554429     0.0000000275993868759     0.0000000130524424453     0.0000000000008686160 
    0.0000000000000000000     -0.0000000133953541877     -0.0000000283441692795     -0.0000000473122747537     -0.0000000745067131074     -0.0000001160427399370     -0.0000001929174555925     -0.0000003436767958548     -0.0000005210166605769     -0.0000006565054485258     -0.0000006908946453495     -0.0000006035236162989     -0.0000004269421458462     -0.0000002311130136428     -0.0000000839173257705     -0.0000000141755879815     0.0000000000000000000     0.0000000141755879815     0.0000000839173257705     0.0000002311130136428     0.0000004269421458462     0.0000006035236162989     0.0000006908946453495     0.0000006565054485258     0.0000005210166605769     0.0000003436767958548     0.0000001929174555925     0.0000001160427399370     0.0000000745067131074     0.0000000473122747537     0.0000000283441692795     0.0000000133953541877     0.0000000000000000000 
    -0.0000000000008686160     -0.0000000130524424453     -0.0000000275993868759     -0.0000000460013554429     -0.0000000722746897773     -0.0000001122649972839     -0.0000001844482538476     -0.0000003286119251283     -0.0000005005198280421     -0.0000006336817063097     -0.0000006701428817642     -0.0000005888800811065     -0.0000004202179072640     -0.0000002310928890607     -0.0000000871921304379     -0.0000000169887241386     0.0000000000039442891     0.0000000169966042609     0.0000000871998846388     0.0000002311001567717     0.0000004202241040176     0.0000005888846087441     0.0000006701454170306     0.0000006336823633708     0.0000005005190785256     0.0000003286103617508     0.0000001844463840811     0.0000001122631468663     0.0000000722728986546     0.0000000459995978045     0.0000000275976432517     0.0000000130507038720     -0.0000000000008686160 
    -0.0000000000016712435     -0.0000000120832737343     -0.0000000255020367959     -0.0000000423266618668     -0.0000000660485735283     -0.0000001017650109437     -0.0000001616598861532     -0.0000002869128996910     -0.0000004429795266823     -0.0000005688428575992     -0.0000006103038728301     -0.0000005455677538663     -0.0000003989557651440     -0.0000002289673733815     -0.0000000949611395330     -0.0000000241937177904     0.0000000000072890631     0.0000000242082032970     0.0000000949751859234     0.0000002289802539586     0.0000003989664331052     0.0000005455752168004     0.0000006103076739237     0.0000005688433166970     0.0000004429775634610     0.0000002869096066929     0.0000001616561739419     0.0000001017614195003     0.0000000660451191392     0.0000000423232809232     0.0000000254986843662     0.0000000120799296105     -0.0000000000016712435 
    -0.0000000000023529601     -0.0000000106348531634     -0.0000000223881439377     -0.0000000369271429247     -0.0000000570079636112     -0.0000000866645451222     -0.0000001315241238247     -0.0000002280410751462     -0.0000003592910831745     -0.0000004723235077196     -0.0000005187424354020     -0.0000004762863531998     -0.0000003612029744421     -0.0000002198980849665     -0.0000001020888052289     -0.0000000326107757057     0.0000000000094928651     0.0000000326294702508     0.0000001021064734897     0.0000002199136542936     0.0000003612151618469     0.0000004762941145814     0.0000005187454755487     0.0000004723224697821     0.0000003592872625139     0.0000002280358884982     0.0000001315187033336     0.0000000866594336030     0.0000000570030851002     0.0000000369223835483     0.0000000223834277459     0.0000000106301464926     -0.0000000000023529601 
    -0.0000000000028773076     -0.0000000088598088980     -0.0000000186157690586     -0.0000000305093493715     -0.0000000465072491497     -0.0000000694816027271     -0.0000001025288110473     -0.0000001647321543811     -0.0000002646532289873     -0.0000003593447016716     -0.0000004075425060361     -0.0000003874284910137     -0.0000003070950863233     -0.0000001995593699850     -0.0000001030065369699     -0.0000000385440904809     0.0000000000101545928     0.0000000385638254969     0.0000001030244779063     0.0000001995741834391     0.0000003071055279352     0.0000003874338169761     0.0000004075428408366     0.0000003593410627160     0.0000002646471472000     0.0000001647251467520     0.0000001025220176481     0.0000000694752970641     0.0000000465012675079     0.0000000305035286574     0.0000000186100047983     0.0000000088540547225     -0.0000000000028773076 
    -0.0000000000032276783     -0.0000000068567021391     -0.0000000144292930159     -0.0000000235918064522     -0.0000000356075045736     -0.0000000522898259031     -0.0000000756259388868     -0.0000001096473675623     -0.0000001749612158662     -0.0000002469211624388     -0.0000002918560232685     -0.0000002894460540033     -0.0000002410465252202     -0.0000001672363030649     -0.0000000945490337073     -0.0000000394316495611     0.0000000000091598767     0.0000000394491250816     0.0000000945640269543     0.0000001672473795958     0.0000002410527111242     0.0000002894471180731     0.0000002918525991641     0.0000002469145688388     0.0000001749530325097     0.0000001096390011815     0.0000000756182400535     0.0000000522827290478     0.0000000356007861706     0.0000000235852739527     0.0000000144228265208     0.0000000068502474817     -0.0000000000032276783 
    -0.0000000000034034741     -0.0000000046689508103     -0.0000000099457003719     -0.0000000164485858788     -0.0000000249146474690     -0.0000000363337284774     -0.0000000517822536794     -0.0000000716518289069     -0.0000001033271264598     -0.0000001501937499123     -0.0000001867285511278     -0.0000001949020400563     -0.0000001713954104962     -0.0000001267871308525     -0.0000000774208982150     -0.0000000348800120720     0.0000000000068416682     0.0000000348927045555     0.0000000774307784652     0.0000001267928546765     0.0000001713963812449     0.0000001948985315042     0.0000001867215915858     0.0000001501847856745     0.0000001033176129176     0.0000000716429098441     0.0000000517741700606     0.0000000363262693469     0.0000000249075667206     0.0000000164416920264     0.0000000099388768534     0.0000000046621431139     -0.0000000000034034741 
    -0.0000000000034148874     -0.0000000023273199530     -0.0000000052354416990     -0.0000000092177652306     -0.0000000146950775731     -0.0000000221127818957     -0.0000000318989557084     -0.0000000441016120671     -0.0000000577374816237     -0.0000000794707585918     -0.0000001036929524168     -0.0000001151043989079     -0.0000001077117792968     -0.0000000850267961800     -0.0000000555642039486     -0.0000000265542954370     0.0000000000039673031     0.0000000265612658454     0.0000000555684988588     0.0000000850273116398     0.0000001077082625515     0.0000001150974472858     0.0000001036837549991     0.0000000794607001605     0.0000000577277906636     0.0000000440928309038     0.0000000318909705237     0.0000000221053566664     0.0000000146879844761     0.0000000092108401191     0.0000000052285866222     0.0000000023204864868     -0.0000000000034148874 
    -0.0000000000032799966     0.0000000001107029541     -0.0000000004051941900     -0.0000000020354212387     -0.0000000050764614963     -0.0000000096808297206     -0.0000000158688614525     -0.0000000234061119081     -0.0000000315639531620     -0.0000000389451075565     -0.0000000487427951235     -0.0000000573255055139     -0.0000000576563659807     -0.0000000488572082843     -0.0000000340864281745     -0.0000000171309069832     0.0000000000014339886     0.0000000171329722686     0.0000000340863005354     0.0000000488540836112     0.0000000576502205591     0.0000000573170350922     0.0000000487331287803     0.0000000389354415007     0.0000000315549886840     0.0000000233979356837     0.0000000158613413289     0.0000000096737597575     0.0000000050696588533     0.0000000020287600791     0.0000000003986000993     -0.0000000001172698455     -0.0000000000032799966 
    -0.0000000000030242894     0.0000000025589048092     0.0000000043876307906     0.0000000049147017725     0.0000000038275752446     0.0000000010841849371     -0.0000000031029151818     -0.0000000082765316287     -0.0000000137388280691     -0.0000000185908654048     -0.0000000218742553932     -0.0000000238920436268     -0.0000000252004817746     -0.0000000230090656959     -0.0000000171997876561     -0.0000000090807179848     -0.0000000000001495649     0.0000000090798270759     0.0000000171972993333     0.0000000230044512083     0.0000000251938293376     0.0000000238839883043     0.0000000218657198354     0.0000000185824954798     0.0000000137309503801     0.0000000082692243645     0.0000000030960939222     -0.0000000010906636182     -0.0000000038338428352     -0.0000000049208508136     -0.0000000043937175325     -0.0000000025649620353     -0.0000000000030242894 
    -0.0000000000026793145     0.0000000049325939440     0.0000000089839987481     0.0000000114422627730     0.0000000119023704104     0.0000000103332557179     0.0000000070784756855     0.0000000027748664672     -0.0000000017959297703     -0.0000000058755372506     -0.0000000088686015536     -0.0000000104255269814     -0.0000000104604078871     -0.0000000092816585561     -0.0000000071838653832     -0.0000000039427531594     -0.0000000000006688932     0.0000000039410137695     0.0000000071810542387     0.0000000092774565018     0.0000000104549287219     0.0000000104191257797     0.0000000088617369793     0.0000000058686296258     0.0000000017892570899     -0.0000000027811897532     -0.0000000070844602418     -0.0000000103389773135     -0.0000000119079180620     -0.0000000114477088123     -0.0000000089893907540     -0.0000000049379601976     -0.0000000000026793145 
    -0.0000000000022776613     0.0000000071756843872     0.0000000132730075681     0.0000000174076534044     0.0000000190628723375     0.0000000181944140661     0.0000000152374989803     0.0000000109795118020     0.0000000063272785500     0.0000000020655539863     -0.0000000012912769505     -0.0000000035125927506     -0.0000000045709032261     -0.0000000045522486721     -0.0000000036150715001     -0.0000000019929409345     -0.0000000000004253172     0.0000000019918120037     0.0000000036131907206     0.0000000045493542284     0.0000000045669852073     0.0000000035078448682     0.0000000012859998572     -0.0000000020710508310     -0.0000000063327473834     -0.0000000109848013007     -0.0000000152425564039     -0.0000000181992620519     -0.0000000190675717073     -0.0000000174122675584     -0.0000000132775818624     -0.0000000071802434384     -0.0000000000022776613 
    -0.0000000000018456200     0.0000000092528900256     0.0000000171834629101     0.0000000227197493272     0.0000000252530247224     0.0000000247530884616     0.0000000217506100527     0.0000000171645063848     0.0000000120226120780     0.0000000071889094477     0.0000000032106148698     0.0000000003235421643     -0.0000000014444509331     -0.0000000021736980653     -0.0000000020132514389     -0.0000000011870234935     -0.0000000000001277401     0.0000000011865557214     0.0000000020122076960     0.0000000021718667511     0.0000000014417960446     -0.0000000003269150035     -0.0000000032145144867     -0.0000000071931117703     -0.0000000120269047225     -0.0000000171687271290     -0.0000000217546728692     -0.0000000247569851287     -0.0000000252567993141     -0.0000000227234601063     -0.0000000171871532585     -0.0000000092565795968     -0.0000000000018456200 
    -0.0000000000013982651     0.0000000111085358746     0.0000000206171114508     0.0000000272665031671     0.0000000303936013294     0.0000000300278584332     0.0000000268151661086     0.0000000217913381993     0.0000000160788295278     0.0000000106147378342     0.0000000060051650599     0.0000000025310174747     0.0000000002436072253     -0.0000000009416655314     -0.0000000011988845219     -0.0000000007789936907     0.0000000000000333409     0.0000000007789046030     0.0000000011983722660     0.0000000009405708286     -0.0000000002453229510     -0.0000000025332976989     -0.0000000060078914431     -0.0000000106177562027     -0.0000000160819751831     -0.0000000217944688216     -0.0000000268181943878     -0.0000000300307652550     -0.0000000303964194754     -0.0000000272692827534     -0.0000000206198898113     -0.0000000111113261908     -0.0000000000013982651 
    -0.0000000000009405674     0.0000000126282203691     0.0000000233846850094     0.0000000308450579666     0.0000000343277416586     0.0000000339522237849     0.0000000304863320658     0.0000000250633125589     0.0000000188681831715     0.0000000128847442175     0.0000000077665828122     0.0000000038398665669     0.0000000011826457995     -0.0000000002923076571     -0.0000000007846217225     -0.0000000005750141324     0.0000000000000793392     0.0000000005750699490     0.0000000007843984518     0.0000000002917002501     -0.0000000011836654193     -0.0000000038412682083     -0.0000000077682979406     -0.0000000128866776957     -0.0000000188702256212     -0.0000000250653627969     -0.0000000304883238687     -0.0000000339541399037     -0.0000000343296045197     -0.0000000308469041800     -0.0000000233865413869     -0.0000000126300938270     -0.0000000000009405674 
    -0.0000000000004734801     0.0000000136458941670     0.0000000252161147281     0.0000000331708204048     0.0000000368301400591     0.0000000363953218323     0.0000000327301156706     0.0000000270339208499     0.0000000205253707995     0.0000000142104147559     0.0000000087696840505     0.0000000045591689244     0.0000000016761974004     0.0000000000334205601     -0.0000000005847010954     -0.0000000004789010322     0.0000000000000552275     0.0000000004789602736     0.0000000005846216720     -0.0000000000336903142     -0.0000000016766713466     -0.0000000045598333942     -0.0000000087705075957     -0.0000000142113525354     -0.0000000205263692386     -0.0000000270349286168     -0.0000000327310981550     -0.0000000363962695082     -0.0000000368310643732     -0.0000000331717404980     -0.0000000252170443754     -0.0000000136468359213     -0.0000000000004734801 
    0.0000000000000000000     0.0000000140066891075     0.0000000258611521962     0.0000000339820665271     0.0000000376928957094     0.0000000372279104779     0.0000000334874854646     0.0000000276945613381     0.0000000210780601972     0.0000000146499427043     0.0000000090992708122     0.0000000047921686829     0.0000000018328291630     0.0000000001342170168     -0.0000000005243510837     -0.0000000004504144760     -0.0000000000000000000     0.0000000004504144760     0.0000000005243510837     -0.0000000001342170168     -0.0000000018328291630     -0.0000000047921686829     -0.0000000090992708122     -0.0000000146499427043     -0.0000000210780601972     -0.0000000276945613381     -0.0000000334874854646     -0.0000000372279104779     -0.0000000376928957094     -0.0000000339820665271     -0.0000000258611521962     -0.0000000140066891075     0.0000000000000000000 
    0.0000000000000000000     0.0000000296938106299     0.0000000545999813972     0.0000000712892166945     0.0000000784406643270     0.0000000767715544404     0.0000000683839429232     0.0000000559475752035     0.0000000420301333536     0.0000000286882894829     0.0000000173044414673     0.0000000086032150279     0.0000000027641707280     -0.0000000004408320300     -0.0000000015170921467     -0.0000000011279685469     -0.0000000000000000000     0.0000000011279685469     0.0000000015170921467     0.0000000004408320300     -0.0000000027641707280     -0.0000000086032150279     -0.0000000173044414673     -0.0000000286882894829     -0.0000000420301333536     -0.0000000559475752035     -0.0000000683839429232     -0.0000000767715544404     -0.0000000784406643270     -0.0000000712892166945     -0.0000000545999813972     -0.0000000296938106299     0.0000000000000000000 
    0.0000000000004334528     0.0000000289074221852     0.0000000531995031949     0.0000000695423246785     0.0000000766064019798     0.0000000750316578006     0.0000000668333750551     0.0000000546242127241     0.0000000409469157305     0.0000000278461827382     0.0000000166894295340     0.0000000081828204469     0.0000000024933614787     -0.0000000006069379164     -0.0000000016123618440     -0.0000000011717681764     -0.0000000000000631505     0.0000000011716914734     0.0000000016124203013     0.0000000006071837515     -0.0000000024929131629     -0.0000000081821839074     -0.0000000166886390815     -0.0000000278452862896     -0.0000000409459677539     -0.0000000546232627805     -0.0000000668324549217     -0.0000000750307751264     -0.0000000766055452001     -0.0000000695414756072     -0.0000000531986487281     -0.0000000289065591102     0.0000000000004334528 
    0.0000000000008631188     0.0000000266931432697     0.0000000492341178523     0.0000000645517860375     0.0000000713078442586     0.0000000699476993107     0.0000000622575259499     0.0000000506901059344     0.0000000377089047603     0.0000000253142812525     0.0000000148244097881     0.0000000068904270563     0.0000000016436362350     -0.0000000011420810616     -0.0000000019276634759     -0.0000000013195056824     -0.0000000000000939030     0.0000000013194172830     0.0000000019278464410     0.0000000011426410373     -0.0000000016426689822     -0.0000000068890837204     -0.0000000148227640230     -0.0000000253124337096     -0.0000000377069663512     -0.0000000506881744439     -0.0000000622556620722     -0.0000000699459162369     -0.0000000713061185134     -0.0000000645500819713     -0.0000000492324094942     -0.0000000266914227664     0.0000000000008631188 
    0.0000000000012876462     0.0000000234082475771     0.0000000432862900179     0.0000000569375221272     0.0000000630535057640     0.0000000618563566559     0.0000000548360743166     0.0000000442117076516     0.0000000323042788098     0.0000000210196611944     0.0000000115861605240     0.0000000045689182844     0.0000000000477916509     -0.0000000021977727381     -0.0000000025767743097     -0.0000000016319027275     -0.0000000000000533496     0.0000000016319460657     0.0000000025772274981     0.0000000021987947697     -0.0000000000461595279     -0.0000000045667335310     -0.0000000115835475000     -0.0000000210167805735     -0.0000000323012967883     -0.0000000442087617824     -0.0000000548332441762     -0.0000000618536549793     -0.0000000630508967682     -0.0000000569349553146     -0.0000000432837283328     -0.0000000234056772046     0.0000000000012876462 
    0.0000000000017065966     0.0000000194443515258     0.0000000359991872965     0.0000000473911182081     0.0000000524140530789     0.0000000511252460729     0.0000000447285863061     0.0000000351677353969     0.0000000245548313792     0.0000000146448048501     0.0000000065474846021     0.0000000007352909142     -0.0000000027637790380     -0.0000000041671831535     -0.0000000038353930378     -0.0000000022490936253     0.0000000000001036421     0.0000000022495043100     0.0000000038363581141     0.0000000041689115175     0.0000000027663093218     -0.0000000007320640613     -0.0000000065437567116     -0.0000000146408047566     -0.0000000245507714303     -0.0000000351637718128     -0.0000000447247961254     -0.0000000511216293746     -0.0000000524105604390     -0.0000000473876887063     -0.0000000359957767228     -0.0000000194409404726     0.0000000000017065966 
    0.0000000000021151498     0.0000000150830205563     0.0000000278437438834     0.0000000364307026139     0.0000000398188580931     0.0000000379997052652     0.0000000319400638887     0.0000000232860702837     0.0000000138883958167     0.0000000053291518915     -0.0000000013665991217     -0.0000000057617910239     -0.0000000078548613237     -0.0000000078940985459     -0.0000000062631084321     -0.0000000034427575080     0.0000000000004044113     0.0000000034438305347     0.0000000062648975343     0.0000000078968575121     0.0000000078586020253     0.0000000057663236124     0.0000000013716248205     -0.0000000053239408438     -0.0000000138832426550     -0.0000000232811185237     -0.0000000319353570705     -0.0000000379952121849     -0.0000000398145109938     -0.0000000364264333155     -0.0000000278395051684     -0.0000000150787894664     0.0000000000021151498 
    0.0000000000024990657     0.0000000104688127517     0.0000000190761043335     0.0000000243570451888     0.0000000255148590638     0.0000000225483422269     0.0000000162181169347     0.0000000078527344632     -0.0000000009651698320     -0.0000000087418883847     -0.0000000143528631150     -0.0000000172031381620     -0.0000000172495736099     -0.0000000149203940440     -0.0000000111985393307     -0.0000000060567701052     0.0000000000007294940     0.0000000060585971437     0.0000000112013471104     0.0000000149244673522     0.0000000172548216147     0.0000000172092394921     0.0000000143593741903     0.0000000087484043604     0.0000000009714268778     -0.0000000078468390465     -0.0000000162125633584     -0.0000000225430473011     -0.0000000255097270691     -0.0000000243519983517     -0.0000000190710931457     -0.0000000104638126276     0.0000000000024990657 
    0.0000000000028339147     0.0000000056818659625     0.0000000098576558313     0.0000000113831838787     0.0000000096667222121     0.0000000046976634407     -0.0000000030090881262     -0.0000000124699137725     -0.0000000222845293006     -0.0000000307560198538     -0.0000000361875627534     -0.0000000380266198345     -0.0000000388189567582     -0.0000000347955970092     -0.0000000256010051539     -0.0000000133473672620     0.0000000000004180301     0.0000000133487423384     0.0000000256038311868     0.0000000348003398455     0.0000000388255042707     0.0000000380343497259     0.0000000361956343146     0.0000000307638779348     0.0000000222918786105     0.0000000124766963961     0.0000000030153990751     -0.0000000046916752804     -0.0000000096609210276     -0.0000000113774733964     -0.0000000098519795593     -0.0000000056761976416     0.0000000000028339147 
    0.0000000000030890566     0.0000000008245553627     0.0000000003955166845     -0.0000000022190499553     -0.0000000075314748030     -0.0000000157122907513     -0.0000000266369544383     -0.0000000397047038828     -0.0000000534657746706     -0.0000000653832305684     -0.0000000777444763206     -0.0000000896489792351     -0.0000000887704984757     -0.0000000736478660293     -0.0000000500718542994     -0.0000000245901502774     -0.0000000000008713270     0.0000000245891382369     0.0000000500728307398     0.0000000736515367600     0.0000000887768398552     0.0000000896573046483     0.0000000777537130397     0.0000000653922763444     0.0000000534741028791     0.0000000397122637581     0.0000000266438943831     0.0000000157188212047     0.0000000075377791993     0.0000000022252538501     -0.0000000003893422340     -0.0000000008183805707     0.0000000000030890566 
    0.0000000000032332633     -0.0000000039522222147     -0.0000000090215717526     -0.0000000160918263821     -0.0000000258357562701     -0.0000000388811442821     -0.0000000557596538218     -0.0000000763038413918     -0.0000000985707869360     -0.0000001288998416730     -0.0000001655772512330     -0.0000001815206579149     -0.0000001663430616670     -0.0000001271035985143     -0.0000000796109125398     -0.0000000365197818142     -0.0000000000030900295     0.0000000365144855235     0.0000000796080564377     0.0000001271041551923     0.0000001663472017029     0.0000001815277719013     0.0000001655862080671     0.0000001289093610529     0.0000000985797685292     0.0000000763119398608     0.0000000557670112871     0.0000000388880036251     0.0000000258423426863     0.0000000160982987172     0.0000000090280199179     0.0000000039586807953     0.0000000000032332633 
    0.0000000000032387498     -0.0000000084907501667     -0.0000000181005317509     -0.0000000298804787564     -0.0000000449958563215     -0.0000000649501813523     -0.0000000913059802877     -0.0000001243720509847     -0.0000001709002221917     -0.0000002440357205960     -0.0000003007060127889     -0.0000003088295248132     -0.0000002637275141147     -0.0000001860491133666     -0.0000001061806586553     -0.0000000444406910119     -0.0000000000057330221     0.0000000444301480833     0.0000001061727174396     0.0000001860449689544     0.0000002637276387951     0.0000003088335882267     0.0000003007130198264     0.0000002440443321899     0.0000001709091229022     0.0000001243802667269     0.0000000913134230263     0.0000000649570758651     0.0000000450024454524     0.0000000298869447248     0.0000000181069788777     0.0000000084972160734     0.0000000000032387498 
    0.0000000000030835627     -0.0000000126801877378     -0.0000000266313510584     -0.0000000433070712181     -0.0000000647299386940     -0.0000000937469373364     -0.0000001333660914315     -0.0000001864149139789     -0.0000002882609967203     -0.0000004039276074692     -0.0000004725753030216     -0.0000004588508372236     -0.0000003676196742251     -0.0000002385730594870     -0.0000001210081445013     -0.0000000437690834765     -0.0000000000079849431     0.0000000437539227545     0.0000001209953361344     0.0000002385638946587     0.0000003676149655749     0.0000004588507018356     0.0000004725790918331     0.0000004039340878369     0.0000002882687342523     0.0000001864226528054     0.0000001333731754079     0.0000000937534984411     0.0000000647361999120     0.0000000433132145439     0.0000000266374818834     0.0000000126863418108     0.0000000000030835627 
    0.0000000000027547221     -0.0000000164578225994     -0.0000000344708378739     -0.0000000560960678035     -0.0000000845220081671     -0.0000001243352425450     -0.0000001803086278035     -0.0000002756859399011     -0.0000004375288994209     -0.0000005908706533133     -0.0000006616811930605     -0.0000006128917877204     -0.0000004626905350926     -0.0000002742481289499     -0.0000001184541573913     -0.0000000323107862769     -0.0000000000090879895     0.0000000322931876679     0.0000001184383237557     0.0000002742352768768     0.0000004626817316156     0.0000006128876164568     0.0000006616814622034     0.0000005908743949119     0.0000004375347135575     0.0000002756924617442     0.0000001803148683837     0.0000001243410661176     0.0000000845275824974     0.0000000561015469091     0.0000000344763119249     0.0000000164633199292     0.0000000000027547221 
    0.0000000000022532279     -0.0000000197465292576     -0.0000000414107694043     -0.0000000677603548058     -0.0000001033014101183     -0.0000001545375320957     -0.0000002282929372801     -0.0000003803440737680     -0.0000005961321012594     -0.0000007791597246164     -0.0000008431097084290     -0.0000007510420619173     -0.0000005368981193257     -0.0000002889540845299     -0.0000000994780153561     -0.0000000120052648596     -0.0000000000086536045     0.0000000119882781855     0.0000000994621003437     0.0000002889402324327     0.0000005368874493953     0.0000007510354466455     0.0000008431073459967     0.0000007791609864940     0.0000005961357942991     0.0000003803489145417     0.0000002282979111773     0.0000001545422398940     0.0000001033059480362     0.0000000677648305387     0.0000000414152468283     0.0000000197510262844     0.0000000000022532279 
    0.0000000000015986622     -0.0000000223851683961     -0.0000000470464158094     -0.0000000774286534025     -0.0000001192685232124     -0.0000001808285463722     -0.0000002761925365072     -0.0000004785490364913     -0.0000007368378712631     -0.0000009401291499506     -0.0000009921511759562     -0.0000008575250371109     -0.0000005855388221489     -0.0000002870407962990     -0.0000000722008350411     0.0000000111880509305     -0.0000000000067265083     -0.0000000112013767488     0.0000000721880169103     0.0000002870291643244     0.0000005855293000396     0.0000008575184760380     0.0000009921479415413     0.0000009401289171872     0.0000007368397880609     0.0000004785521078282     0.0000002761959410161     0.0000001808318413454     0.0000001192717268270     0.0000000774318258642     0.0000000470495934463     0.0000000223883596760     0.0000000000015986622 
    0.0000000000008297767     -0.0000000241288807656     -0.0000000507971365108     -0.0000000839390356071     -0.0000001301702773623     -0.0000001989931628385     -0.0000003130003096142     -0.0000005484009052809     -0.0000008337190711706     -0.0000010482730375640     -0.0000010893614480767     -0.0000009234346962749     -0.0000006110800561171     -0.0000002788480010943     -0.0000000486814167294     0.0000000294753068625     -0.0000000000036652166     -0.0000000294826069708     0.0000000486742887087     0.0000002788413839883     0.0000006110744691865     0.0000009234306590831     0.0000010893592298717     0.0000010482725164282     0.0000008337198085438     0.0000005484023595467     0.0000003130020211531     0.0000001989948545891     0.0000001301719338914     0.0000000839406813086     0.0000000507987863919     0.0000000241305374915     0.0000000000008297767 
    -0.0000000000000000000     -0.0000000247432197900     -0.0000000521221685090     -0.0000000862503560820     -0.0000001340628752017     -0.0000002055090417785     -0.0000003267660286955     -0.0000005736801492160     -0.0000008682486214990     -0.0000010863376797742     -0.0000011230325702336     -0.0000009455826312164     -0.0000006187440128422     -0.0000002746919495488     -0.0000000394560828371     0.0000000364016708695     0.0000000000000000000     -0.0000000364016708695     0.0000000394560828371     0.0000002746919495488     0.0000006187440128422     0.0000009455826312164     0.0000011230325702336     0.0000010863376797742     0.0000008682486214990     0.0000005736801492160     0.0000003267660286955     0.0000002055090417785     0.0000001340628752017     0.0000000862503560820     0.0000000521221685090     0.0000000247432197900     -0.0000000000000000000 
    -0.0000000000008297767     -0.0000000241305374915     -0.0000000507987863919     -0.0000000839406813086     -0.0000001301719338914     -0.0000001989948545891     -0.0000003130020211531     -0.0000005484023595467     -0.0000008337198085438     -0.0000010482725164282     -0.0000010893592298717     -0.0000009234306590831     -0.0000006110744691865     -0.0000002788413839883     -0.0000000486742887087     0.0000000294826069708     0.0000000000036652166     -0.0000000294753068625     0.0000000486814167294     0.0000002788480010943     0.0000006110800561171     0.0000009234346962749     0.0000010893614480767     0.0000010482730375640     0.0000008337190711706     0.0000005484009052809     0.0000003130003096142     0.0000001989931628385     0.0000001301702773623     0.0000000839390356071     0.0000000507971365108     0.0000000241288807656     -0.0000000000008297767 
    -0.0000000000015986622     -0.0000000223883596760     -0.0000000470495934463     -0.0000000774318258642     -0.0000001192717268270     -0.0000001808318413454     -0.0000002761959410161     -0.0000004785521078282     -0.0000007368397880609     -0.0000009401289171872     -0.0000009921479415413     -0.0000008575184760380     -0.0000005855293000396     -0.0000002870291643244     -0.0000000721880169103     0.0000000112013767488     0.0000000000067265083     -0.0000000111880509305     0.0000000722008350411     0.0000002870407962990     0.0000005855388221489     0.0000008575250371109     0.0000009921511759562     0.0000009401291499506     0.0000007368378712631     0.0000004785490364913     0.0000002761925365072     0.0000001808285463722     0.0000001192685232124     0.0000000774286534025     0.0000000470464158094     0.0000000223851683961     -0.0000000000015986622 
    -0.0000000000022532279     -0.0000000197510262844     -0.0000000414152468283     -0.0000000677648305387     -0.0000001033059480362     -0.0000001545422398940     -0.0000002282979111773     -0.0000003803489145417     -0.0000005961357942991     -0.0000007791609864940     -0.0000008431073459967     -0.0000007510354466455     -0.0000005368874493953     -0.0000002889402324327     -0.0000000994621003437     -0.0000000119882781855     0.0000000000086536045     0.0000000120052648596     0.0000000994780153561     0.0000002889540845299     0.0000005368981193257     0.0000007510420619173     0.0000008431097084290     0.0000007791597246164     0.0000005961321012594     0.0000003803440737680     0.0000002282929372801     0.0000001545375320957     0.0000001033014101183     0.0000000677603548058     0.0000000414107694043     0.0000000197465292576     -0.0000000000022532279 
    -0.0000000000027547221     -0.0000000164633199292     -0.0000000344763119249     -0.0000000561015469091     -0.0000000845275824974     -0.0000001243410661176     -0.0000001803148683837     -0.0000002756924617442     -0.0000004375347135575     -0.0000005908743949119     -0.0000006616814622034     -0.0000006128876164568     -0.0000004626817316156     -0.0000002742352768768     -0.0000001184383237557     -0.0000000322931876679     0.0000000000090879895     0.0000000323107862769     0.0000001184541573913     0.0000002742481289499     0.0000004626905350926     0.0000006128917877204     0.0000006616811930605     0.0000005908706533133     0.0000004375288994209     0.0000002756859399011     0.0000001803086278035     0.0000001243352425450     0.0000000845220081671     0.0000000560960678035     0.0000000344708378739     0.0000000164578225994     -0.0000000000027547221 
    -0.0000000000030835627     -0.0000000126863418108     -0.0000000266374818834     -0.0000000433132145439     -0.0000000647361999120     -0.0000000937534984411     -0.0000001333731754079     -0.0000001864226528054     -0.0000002882687342523     -0.0000004039340878369     -0.0000004725790918331     -0.0000004588507018356     -0.0000003676149655749     -0.0000002385638946587     -0.0000001209953361344     -0.0000000437539227545     0.0000000000079849431     0.0000000437690834765     0.0000001210081445013     0.0000002385730594870     0.0000003676196742251     0.0000004588508372236     0.0000004725753030216     0.0000004039276074692     0.0000002882609967203     0.0000001864149139789     0.0000001333660914315     0.0000000937469373364     0.0000000647299386940     0.0000000433070712181     0.0000000266313510584     0.0000000126801877378     -0.0000000000030835627 
    -0.0000000000032387498     -0.0000000084972160734     -0.0000000181069788777     -0.0000000298869447248     -0.0000000450024454524     -0.0000000649570758651     -0.0000000913134230263     -0.0000001243802667269     -0.0000001709091229022     -0.0000002440443321899     -0.0000003007130198264     -0.0000003088335882267     -0.0000002637276387951     -0.0000001860449689544     -0.0000001061727174396     -0.0000000444301480833     0.0000000000057330221     0.0000000444406910119     0.0000001061806586553     0.0000001860491133666     0.0000002637275141147     0.0000003088295248132     0.0000003007060127889     0.0000002440357205960     0.0000001709002221917     0.0000001243720509847     0.0000000913059802877     0.0000000649501813523     0.0000000449958563215     0.0000000298804787564     0.0000000181005317509     0.0000000084907501667     -0.0000000000032387498 
    -0.0000000000032332633     -0.0000000039586807953     -0.0000000090280199179     -0.0000000160982987172     -0.0000000258423426863     -0.0000000388880036251     -0.0000000557670112871     -0.0000000763119398608     -0.0000000985797685292     -0.0000001289093610529     -0.0000001655862080671     -0.0000001815277719013     -0.0000001663472017029     -0.0000001271041551923     -0.0000000796080564377     -0.0000000365144855235     0.0000000000030900295     0.0000000365197818142     0.0000000796109125398     0.0000001271035985143     0.0000001663430616670     0.0000001815206579149     0.0000001655772512330     0.0000001288998416730     0.0000000985707869360     0.0000000763038413918     0.0000000557596538218     0.0000000388811442821     0.0000000258357562701     0.0000000160918263821     0.0000000090215717526     0.0000000039522222147     -0.0000000000032332633 
    -0.0000000000030890566     0.0000000008183805707     0.0000000003893422340     -0.0000000022252538501     -0.0000000075377791993     -0.0000000157188212047     -0.0000000266438943831     -0.0000000397122637581     -0.0000000534741028791     -0.0000000653922763444     -0.0000000777537130397     -0.0000000896573046483     -0.0000000887768398552     -0.0000000736515367600     -0.0000000500728307398     -0.0000000245891382369     0.0000000000008713270     0.0000000245901502774     0.0000000500718542994     0.0000000736478660293     0.0000000887704984757     0.0000000896489792351     0.0000000777444763206     0.0000000653832305684     0.0000000534657746706     0.0000000397047038828     0.0000000266369544383     0.0000000157122907513     0.0000000075314748030     0.0000000022190499553     -0.0000000003955166845     -0.0000000008245553627     -0.0000000000030890566 
    -0.0000000000028339147     0.0000000056761976416     0.0000000098519795593     0.0000000113774733964     0.0000000096609210276     0.0000000046916752804     -0.0000000030153990751     -0.0000000124766963961     -0.0000000222918786105     -0.0000000307638779348     -0.0000000361956343146     -0.0000000380343497259     -0.0000000388255042707     -0.0000000348003398455     -0.0000000256038311868     -0.0000000133487423384     -0.0000000000004180301     0.0000000133473672620     0.0000000256010051539     0.0000000347955970092     0.0000000388189567582     0.0000000380266198345     0.0000000361875627534     0.0000000307560198538     0.0000000222845293006     0.0000000124699137725     0.0000000030090881262     -0.0000000046976634407     -0.0000000096667222121     -0.0000000113831838787     -0.0000000098576558313     -0.0000000056818659625     -0.0000000000028339147 
    -0.0000000000024990657     0.0000000104638126276     0.0000000190710931457     0.0000000243519983517     0.0000000255097270691     0.0000000225430473011     0.0000000162125633584     0.0000000078468390465     -0.0000000009714268778     -0.0000000087484043604     -0.0000000143593741903     -0.0000000172092394921     -0.0000000172548216147     -0.0000000149244673522     -0.0000000112013471104     -0.0000000060585971437     -0.0000000000007294940     0.0000000060567701052     0.0000000111985393307     0.0000000149203940440     0.0000000172495736099     0.0000000172031381620     0.0000000143528631150     0.0000000087418883847     0.0000000009651698320     -0.0000000078527344632     -0.0000000162181169347     -0.0000000225483422269     -0.0000000255148590638     -0.0000000243570451888     -0.0000000190761043335     -0.0000000104688127517     -0.0000000000024990657 
    -0.0000000000021151498     0.0000000150787894664     0.0000000278395051684     0.0000000364264333155     0.0000000398145109938     0.0000000379952121849     0.0000000319353570705     0.0000000232811185237     0.0000000138832426550     0.0000000053239408438     -0.0000000013716248205     -0.0000000057663236124     -0.0000000078586020253     -0.0000000078968575121     -0.0000000062648975343     -0.0000000034438305347     -0.0000000000004044113     0.0000000034427575080     0.0000000062631084321     0.0000000078940985459     0.0000000078548613237     0.0000000057617910239     0.0000000013665991217     -0.0000000053291518915     -0.0000000138883958167     -0.0000000232860702837     -0.0000000319400638887     -0.0000000379997052652     -0.0000000398188580931     -0.0000000364307026139     -0.0000000278437438834     -0.0000000150830205563     -0.0000000000021151498 
    -0.0000000000017065966     0.0000000194409404726     0.0000000359957767228     0.0000000473876887063     0.0000000524105604390     0.0000000511216293746     0.0000000447247961254     0.0000000351637718128     0.0000000245507714303     0.0000000146408047566     0.0000000065437567116     0.0000000007320640613     -0.0000000027663093218     -0.0000000041689115175     -0.0000000038363581141     -0.0000000022495043100     -0.0000000000001036421     0.0000000022490936253     0.0000000038353930378     0.0000000041671831535     0.0000000027637790380     -0.0000000007352909142     -0.0000000065474846021     -0.0000000146448048501     -0.0000000245548313792     -0.0000000351677353969     -0.0000000447285863061     -0.0000000511252460729     -0.0000000524140530789     -0.0000000473911182081     -0.0000000359991872965     -0.0000000194443515258     -0.0000000000017065966 
    -0.0000000000012876462     0.0000000234056772046     0.0000000432837283328     0.0000000569349553146     0.0000000630508967682     0.0000000618536549793     0.0000000548332441762     0.0000000442087617824     0.0000000323012967883     0.0000000210167805735     0.0000000115835475000     0.0000000045667335310     0.0000000000461595279     -0.0000000021987947697     -0.0000000025772274981     -0.0000000016319460657     0.0000000000000533496     0.0000000016319027275     0.0000000025767743097     0.0000000021977727381     -0.0000000000477916509     -0.0000000045689182844     -0.0000000115861605240     -0.0000000210196611944     -0.0000000323042788098     -0.0000000442117076516     -0.0000000548360743166     -0.0000000618563566559     -0.0000000630535057640     -0.0000000569375221272     -0.0000000432862900179     -0.0000000234082475771     -0.0000000000012876462 
    -0.0000000000008631188     0.0000000266914227664     0.0000000492324094942     0.0000000645500819713     0.0000000713061185134     0.0000000699459162369     0.0000000622556620722     0.0000000506881744439     0.0000000377069663512     0.0000000253124337096     0.0000000148227640230     0.0000000068890837204     0.0000000016426689822     -0.0000000011426410373     -0.0000000019278464410     -0.0000000013194172830     0.0000000000000939030     0.0000000013195056824     0.0000000019276634759     0.0000000011420810616     -0.0000000016436362350     -0.0000000068904270563     -0.0000000148244097881     -0.0000000253142812525     -0.0000000377089047603     -0.0000000506901059344     -0.0000000622575259499     -0.0000000699476993107     -0.0000000713078442586     -0.0000000645517860375     -0.0000000492341178523     -0.0000000266931432697     -0.0000000000008631188 
    -0.0000000000004334528     0.0000000289065591102     0.0000000531986487281     0.0000000695414756072     0.0000000766055452001     0.0000000750307751264     0.0000000668324549217     0.0000000546232627805     0.0000000409459677539     0.0000000278452862896     0.0000000166886390815     0.0000000081821839074     0.0000000024929131629     -0.0000000006071837515     -0.0000000016124203013     -0.0000000011716914734     0.0000000000000631505     0.0000000011717681764     0.0000000016123618440     0.0000000006069379164     -0.0000000024933614787     -0.0000000081828204469     -0.0000000166894295340     -0.0000000278461827382     -0.0000000409469157305     -0.0000000546242127241     -0.0000000668333750551     -0.0000000750316578006     -0.0000000766064019798     -0.0000000695423246785     -0.0000000531995031949     -0.0000000289074221852     -0.0000000000004334528 
    0.0000000000000000000     0.0000000296938106299     0.0000000545999813972     0.0000000712892166945     0.0000000784406643270     0.0000000767715544404     0.0000000683839429232     0.0000000559475752035     0.0000000420301333536     0.0000000286882894829     0.0000000173044414673     0.0000000086032150279     0.0000000027641707280     -0.0000000004408320300     -0.0000000015170921467     -0.0000000011279685469     -0.0000000000000000000     0.0000000011279685469     0.0000000015170921467     0.0000000004408320300     -0.0000000027641707280     -0.0000000086032150279     -0.0000000173044414673     -0.0000000286882894829     -0.0000000420301333536     -0.0000000559475752035     -0.0000000683839429232     -0.0000000767715544404     -0.0000000784406643270     -0.0000000712892166945     -0.0000000545999813972     -0.0000000296938106299     0.0000000000000000000 
    0.0000000000000000000     0.0000000497114431496     0.0000000906670660650     0.0000001168656613341     0.0000001264615880884     0.0000001213907791763     0.0000001058449124727     0.0000000845956027149     0.0000000618387806916     0.0000000406869982830     0.0000000231076158253     0.0000000100582491656     0.0000000016723845782     -0.0000000025438157855     -0.0000000034961628343     -0.0000000022789225270     -0.0000000000000000000     0.0000000022789225270     0.0000000034961628343     0.0000000025438157855     -0.0000000016723845782     -0.0000000100582491656     -0.0000000231076158253     -0.0000000406869982830     -0.0000000618387806916     -0.0000000845956027149     -0.0000001058449124727     -0.0000001213907791763     -0.0000001264615880884     -0.0000001168656613341     -0.0000000906670660650     -0.0000000497114431496     0.0000000000000000000 
    0.0000000000003641267     0.0000000483109661142     0.0000000881930121846     0.0000001138241253092     0.0000001233390248761     0.0000001185203517369     0.0000001033849732357     0.0000000825855986799     0.0000000602657390425     0.0000000395199437280     0.0000000223002931873     0.0000000095444743393     0.0000000013725824439     -0.0000000027056670168     -0.0000000035772322230     -0.0000000023125782412     -0.0000000000000788613     0.0000000023124677489     0.0000000035772517051     0.0000000027058694284     -0.0000000013721800620     -0.0000000095438866725     -0.0000000222995581917     -0.0000000395191136019     -0.0000000602648700082     -0.0000000825847388052     -0.0000001033841515175     -0.0000001185195741954     -0.0000001233382802977     -0.0000001138233967833     -0.0000000881922869697     -0.0000000483102390977     0.0000000000003641267 
    0.0000000000007302550     0.0000000443873646001     0.0000000812281089078     0.0000001051944911262     0.0000001143901636277     0.0000001102036189288     0.0000000961848812235     0.0000000766545808002     0.0000000555954181598     0.0000000360349044079     0.0000000198705919817     0.0000000079784485331     0.0000000004393433355     -0.0000000032258633196     -0.0000000038483497044     -0.0000000024289655229     -0.0000000000001233193     0.0000000024288132037     0.0000000038484572514     0.0000000032263370458     -0.0000000004384697636     -0.0000000079772069234     -0.0000000198690623816     -0.0000000360331950679     -0.0000000555936430486     -0.0000000766528347597     -0.0000000961832193313     -0.0000001102020503738     -0.0000001143886641854     -0.0000001051930261831     -0.0000000812266525658     -0.0000000443859060531     0.0000000000007302550 
    0.0000000000011008488     0.0000000386323347878     0.0000000709133018380     0.0000000922182261592     0.0000001006723315518     0.0000000971866627300     0.0000000846934894917     0.0000000670317614964     0.0000000479102246788     0.0000000302121261491     0.0000000157244652023     0.0000000052197614613     -0.0000000012819783915     -0.0000000042433504991     -0.0000000044114429727     -0.0000000026813350210     -0.0000000000000949902     0.0000000026812865955     0.0000000044117844613     0.0000000042442400708     0.0000000012834614616     -0.0000000052177424105     -0.0000000157220416388     -0.0000000302094674958     -0.0000000479075004020     -0.0000000670291048821     -0.0000000846909719792     -0.0000000971842900243     -0.0000001006700641793     -0.0000000922160123294     -0.0000000709111033833     -0.0000000386301351906     0.0000000000011008488 
    0.0000000000014766481     0.0000000318269150119     0.0000000585472304887     0.0000000763258962991     0.0000000834198405879     0.0000000803410126042     0.0000000694052201073     0.0000000538957806798     0.0000000371406880989     0.0000000217877217976     0.0000000094606359735     0.0000000008057971256     -0.0000000042307338456     -0.0000000061080835223     -0.0000000054969145220     -0.0000000031804699475     0.0000000000000501818     0.0000000031807605360     0.0000000054977272316     0.0000000061096227636     0.0000000042330425567     -0.0000000008028219771     -0.0000000094571939299     -0.0000000217840476305     -0.0000000371369954295     -0.0000000538922201355     -0.0000000694018590809     -0.0000000803378415327     -0.0000000834168026000     -0.0000000763229255020     -0.0000000585442798373     -0.0000000318239639408     0.0000000000014766481 
    0.0000000000018523024     0.0000000245634663581     0.0000000451327343139     0.0000000586510883066     0.0000000636326511611     0.0000000603583628230     0.0000000506243315034     0.0000000371430309949     0.0000000227860566966     0.0000000099146357176     0.0000000000020400262     -0.0000000063915806273     -0.0000000093964880250     -0.0000000095435401481     -0.0000000075360387332     -0.0000000041148703170     0.0000000000003459828     0.0000000041158057117     0.0000000075376372419     0.0000000095460435495     0.0000000093999121172     0.0000000063957439403     0.0000000000025694315     -0.0000000099098843364     -0.0000000227814017725     -0.0000000371386082727     -0.0000000506201746791     -0.0000000603544301688     -0.0000000636288647741     -0.0000000586473717309     -0.0000000451290361609     -0.0000000245597651680     0.0000000000018523024 
    0.0000000000022130045     0.0000000171652689278     0.0000000312432990212     0.0000000398819991326     0.0000000419385693700     0.0000000376178286214     0.0000000283004465554     0.0000000161438336524     0.0000000035621447069     -0.0000000072862282830     -0.0000000148920977138     -0.0000000186030842729     -0.0000000186184684346     -0.0000000157725868800     -0.0000000111735008550     -0.0000000058109182750     0.0000000000007509235     0.0000000058127388746     0.0000000111761686612     0.0000000157763552163     0.0000000186232958692     0.0000000186086713028     0.0000000148980260358     0.0000000072921162086     -0.0000000035565429324     -0.0000000161386078092     -0.0000000282955671914     -0.0000000376132033751     -0.0000000419340923977     -0.0000000398775834149     -0.0000000312388911823     -0.0000000171608496128     0.0000000000022130045 
    0.0000000000025348600     0.0000000097842268536     0.0000000171808941262     0.0000000204257638987     0.0000000187143645312     0.0000000122236744889     0.0000000019517564610     -0.0000000104681066616     -0.0000000229422944421     -0.0000000331662893226     -0.0000000390726247859     -0.0000000394781934749     -0.0000000368572880391     -0.0000000312952030650     -0.0000000219808508282     -0.0000000110380822898     0.0000000000007275565     0.0000000110399982771     0.0000000219840016754     0.0000000312999643858     0.0000000368635175864     0.0000000394852949717     0.0000000390799319812     0.0000000331733278717     0.0000000229488109960     0.0000000104740679613     -0.0000000019462436889     -0.0000000122184547957     -0.0000000187092952719     -0.0000000204207422208     -0.0000000171758626638     -0.0000000097791694591     0.0000000000025348600 
    0.0000000000027886094     0.0000000025440767802     0.0000000032080626148     0.0000000006514851130     -0.0000000057252830672     -0.0000000158917061142     -0.0000000293192224635     -0.0000000448541381363     -0.0000000603747306927     -0.0000000726470624109     -0.0000000797766205324     -0.0000000869237840466     -0.0000000824285986569     -0.0000000645390118316     -0.0000000406868699956     -0.0000000185514938364     -0.0000000000001342896     0.0000000185518472423     0.0000000406889058050     0.0000000645432940437     0.0000000824350413685     0.0000000869317223286     0.0000000797850701155     0.0000000726551127716     0.0000000603820537014     0.0000000448607301524     0.0000000293252518864     0.0000000158973886278     0.0000000057308034230     -0.0000000006460009797     -0.0000000032025485802     -0.0000000025385189749     0.0000000000027886094 
    0.0000000000029437644     -0.0000000043902302061     -0.0000000103448188950     -0.0000000190046201747     -0.0000000310396846223     -0.0000000468673524801     -0.0000000666527504894     -0.0000000896621340393     -0.0000001131069210762     -0.0000001362744508724     -0.0000001674063881310     -0.0000001775731247675     -0.0000001542795877948     -0.0000001078068143300     -0.0000000590257767246     -0.0000000231500538615     -0.0000000000018688356     0.0000000231470745892     0.0000000590248750902     0.0000001078087707578     0.0000001542844613457     0.0000001775802992720     0.0000001674148252650     0.0000001362830271567     0.0000001131147753825     0.0000000896691542304     0.0000000666591167240     0.0000000468733162358     0.0000000310454672628     0.0000000190103730379     0.0000000103506196015     0.0000000043960915659     0.0000000000029437644 
    0.0000000000029712678     -0.0000000108403864695     -0.0000000231334955120     -0.0000000381005851853     -0.0000000568722611698     -0.0000000807649888101     -0.0000001109841177638     -0.0000001471273435465     -0.0000001880997414060     -0.0000002557744914683     -0.0000003077116453992     -0.0000003039276973182     -0.0000002409839729384     -0.0000001481509778329     -0.0000000657420435163     -0.0000000183008409005     -0.0000000000041183108     0.0000000182934146432     0.0000000657368770265     0.0000001481490432671     0.0000002409855689565     0.0000003039324236617     0.0000003077185665585     0.0000002557824331293     0.0000001881075988412     0.0000001471344413733     0.0000001109905423064     0.0000000807709835904     0.0000000568780635274     0.0000000381063632969     0.0000000231393348318     0.0000000108462982871     0.0000000000029712678 
    0.0000000000028461764     -0.0000000166738797332     -0.0000000348957328056     -0.0000000562665230729     -0.0000000828101844123     -0.0000001172577611005     -0.0000001622545665959     -0.0000002175649997949     -0.0000003113758625625     -0.0000004272424932280     -0.0000004877342990848     -0.0000004504871001493     -0.0000003265074251211     -0.0000001713445023069     -0.0000000504252380821     0.0000000014135390208     -0.0000000000062020105     -0.0000000014252033366     0.0000000504156894884     0.0000001713381402819     0.0000003265048311964     0.0000004504882363492     0.0000004877385065672     0.0000004272486773988     0.0000003113828132393     0.0000002175716923390     0.0000001622606727670     0.0000001172634674994     0.0000000828157119043     0.0000000562720370901     0.0000000349013163401     0.0000000166795401763     0.0000000000028461764 
    0.0000000000025528395     -0.0000000218124295227     -0.0000000454456483294     -0.0000000731353642495     -0.0000001081672629962     -0.0000001551292571954     -0.0000002184244651711     -0.0000003089893965227     -0.0000004735522474266     -0.0000006301049997362     -0.0000006854020562939     -0.0000005969876982496     -0.0000003952836717699     -0.0000001678806109941     -0.0000000088435928953     0.0000000371727349207     -0.0000000000074049477     -0.0000000371869810879     0.0000000088310209239     0.0000001678707442563     0.0000003952773170987     0.0000005969852118257     0.0000006854031584910     0.0000006301088086389     0.0000004735575702175     0.0000003089951049134     0.0000002184298350480     0.0000001551343191310     0.0000001081721894484     0.0000000731402947327     0.0000000454506510910     0.0000000218175056089     0.0000000000025528395 
    0.0000000000020918351     -0.0000000261695232908     -0.0000000545407719038     -0.0000000881250065667     -0.0000001316561949434     -0.0000001917843836265     -0.0000002747522962856     -0.0000004209846579078     -0.0000006483890262247     -0.0000008352317924186     -0.0000008738721698575     -0.0000007240256372513     -0.0000004383976851718     -0.0000001385439820882     0.0000000530706631933     0.0000000839181815147     -0.0000000000072816736     -0.0000000839323953325     -0.0000000530837766166     0.0000001385328268349     0.0000004383893620122     0.0000007240207676470     0.0000008738708152465     0.0000008352333567390     0.0000006483924811327     0.0000004209889299865     0.0000002747565637765     0.0000001917884670205     0.0000001316602022898     0.0000000881290358418     0.0000000545448688862     0.0000000261736826135     0.0000000000020918351 
    0.0000000000014843069     -0.0000000295771451853     -0.0000000617450775763     -0.0000001002649594335     -0.0000001512317219691     -0.0000002231960194175     -0.0000003242982478841     -0.0000005281674474557     -0.0000008045172433535     -0.0000010107202123208     -0.0000010275877522894     -0.0000008184094560805     -0.0000004571372768856     -0.0000000956828516259     0.0000001196248724475     0.0000001310970684000     -0.0000000000057809119     -0.0000001311084602111     -0.0000001196356779754     0.0000000956732297398     0.0000004571295747563     0.0000008184043135996     0.0000010275854016017     0.0000010107203271390     0.0000008045190817982     0.0000005281701694293     0.0000003243011719965     0.0000002231988678809     0.0000001512345449064     0.0000001002678121180     0.0000000617479838991     0.0000000295800967114     0.0000000000014843069 
    0.0000000000007699630     -0.0000000317846659323     -0.0000000664499400022     -0.0000001083018139064     -0.0000001644095556698     -0.0000002446668036211     -0.0000003616897985534     -0.0000006051032076833     -0.0000009123261549716     -0.0000011285721190040     -0.0000011272314038565     -0.0000008749054930519     -0.0000004609755952630     -0.0000000583942554241     0.0000001707550881411     0.0000001661509221555     -0.0000000000031879338     -0.0000001661572386186     -0.0000001707611734944     0.0000000583887029253     0.0000004609709943641     0.0000008749022439956     0.0000011272296951065     0.0000011285718195755     0.0000009123268804072     0.0000006051044978693     0.0000003616912693695     0.0000002446682615317     0.0000001644110120873     0.0000001083032914607     0.0000000664514474776     0.0000000317861971154     0.0000000000007699630 
    -0.0000000000000000000     -0.0000000325539528707     -0.0000000680952322954     -0.0000001111296644820     -0.0000001690807268987     -0.0000002523268159974     -0.0000003758810752344     -0.0000006330474843734     -0.0000009507910281481     -0.0000011700359840143     -0.0000011616232488478     -0.0000008934997710952     -0.0000004607015902772     -0.0000000437057498882     0.0000001899217014859     0.0000001790966959351     0.0000000000000000000     -0.0000001790966959351     -0.0000001899217014859     0.0000000437057498882     0.0000004607015902772     0.0000008934997710952     0.0000011616232488478     0.0000011700359840143     0.0000009507910281481     0.0000006330474843734     0.0000003758810752344     0.0000002523268159974     0.0000001690807268987     0.0000001111296644820     0.0000000680952322954     0.0000000325539528707     -0.0000000000000000000 
    -0.0000000000007699630     -0.0000000317861971154     -0.0000000664514474776     -0.0000001083032914607     -0.0000001644110120873     -0.0000002446682615317     -0.0000003616912693695     -0.0000006051044978693     -0.0000009123268804072     -0.0000011285718195755     -0.0000011272296951065     -0.0000008749022439956     -0.0000004609709943641     -0.0000000583887029253     0.0000001707611734944     0.0000001661572386186     0.0000000000031879338     -0.0000001661509221555     -0.0000001707550881411     0.0000000583942554241     0.0000004609755952630     0.0000008749054930519     0.0000011272314038565     0.0000011285721190040     0.0000009123261549716     0.0000006051032076833     0.0000003616897985534     0.0000002446668036211     0.0000001644095556698     0.0000001083018139064     0.0000000664499400022     0.0000000317846659323     -0.0000000000007699630 
    -0.0000000000014843069     -0.0000000295800967114     -0.0000000617479838991     -0.0000001002678121180     -0.0000001512345449064     -0.0000002231988678809     -0.0000003243011719965     -0.0000005281701694293     -0.0000008045190817982     -0.0000010107203271390     -0.0000010275854016017     -0.0000008184043135996     -0.0000004571295747563     -0.0000000956732297398     0.0000001196356779754     0.0000001311084602111     0.0000000000057809119     -0.0000001310970684000     -0.0000001196248724475     0.0000000956828516259     0.0000004571372768856     0.0000008184094560805     0.0000010275877522894     0.0000010107202123208     0.0000008045172433535     0.0000005281674474557     0.0000003242982478841     0.0000002231960194175     0.0000001512317219691     0.0000001002649594335     0.0000000617450775763     0.0000000295771451853     -0.0000000000014843069 
    -0.0000000000020918351     -0.0000000261736826135     -0.0000000545448688862     -0.0000000881290358418     -0.0000001316602022898     -0.0000001917884670205     -0.0000002747565637765     -0.0000004209889299865     -0.0000006483924811327     -0.0000008352333567390     -0.0000008738708152465     -0.0000007240207676470     -0.0000004383893620122     -0.0000001385328268349     0.0000000530837766166     0.0000000839323953325     0.0000000000072816736     -0.0000000839181815147     -0.0000000530706631933     0.0000001385439820882     0.0000004383976851718     0.0000007240256372513     0.0000008738721698575     0.0000008352317924186     0.0000006483890262247     0.0000004209846579078     0.0000002747522962856     0.0000001917843836265     0.0000001316561949434     0.0000000881250065667     0.0000000545407719038     0.0000000261695232908     -0.0000000000020918351 
    -0.0000000000025528395     -0.0000000218175056089     -0.0000000454506510910     -0.0000000731402947327     -0.0000001081721894484     -0.0000001551343191310     -0.0000002184298350480     -0.0000003089951049134     -0.0000004735575702175     -0.0000006301088086389     -0.0000006854031584910     -0.0000005969852118257     -0.0000003952773170987     -0.0000001678707442563     -0.0000000088310209239     0.0000000371869810879     0.0000000000074049477     -0.0000000371727349207     0.0000000088435928953     0.0000001678806109941     0.0000003952836717699     0.0000005969876982496     0.0000006854020562939     0.0000006301049997362     0.0000004735522474266     0.0000003089893965227     0.0000002184244651711     0.0000001551292571954     0.0000001081672629962     0.0000000731353642495     0.0000000454456483294     0.0000000218124295227     -0.0000000000025528395 
    -0.0000000000028461764     -0.0000000166795401763     -0.0000000349013163401     -0.0000000562720370901     -0.0000000828157119043     -0.0000001172634674994     -0.0000001622606727670     -0.0000002175716923390     -0.0000003113828132393     -0.0000004272486773988     -0.0000004877385065672     -0.0000004504882363492     -0.0000003265048311964     -0.0000001713381402819     -0.0000000504156894884     0.0000000014252033366     0.0000000000062020105     -0.0000000014135390208     0.0000000504252380821     0.0000001713445023069     0.0000003265074251211     0.0000004504871001493     0.0000004877342990848     0.0000004272424932280     0.0000003113758625625     0.0000002175649997949     0.0000001622545665959     0.0000001172577611005     0.0000000828101844123     0.0000000562665230729     0.0000000348957328056     0.0000000166738797332     -0.0000000000028461764 
    -0.0000000000029712678     -0.0000000108462982871     -0.0000000231393348318     -0.0000000381063632969     -0.0000000568780635274     -0.0000000807709835904     -0.0000001109905423064     -0.0000001471344413733     -0.0000001881075988412     -0.0000002557824331293     -0.0000003077185665585     -0.0000003039324236617     -0.0000002409855689565     -0.0000001481490432671     -0.0000000657368770265     -0.0000000182934146432     0.0000000000041183108     0.0000000183008409005     0.0000000657420435163     0.0000001481509778329     0.0000002409839729384     0.0000003039276973182     0.0000003077116453992     0.0000002557744914683     0.0000001880997414060     0.0000001471273435465     0.0000001109841177638     0.0000000807649888101     0.0000000568722611698     0.0000000381005851853     0.0000000231334955120     0.0000000108403864695     -0.0000000000029712678 
    -0.0000000000029437644     -0.0000000043960915659     -0.0000000103506196015     -0.0000000190103730379     -0.0000000310454672628     -0.0000000468733162358     -0.0000000666591167240     -0.0000000896691542304     -0.0000001131147753825     -0.0000001362830271567     -0.0000001674148252650     -0.0000001775802992720     -0.0000001542844613457     -0.0000001078087707578     -0.0000000590248750902     -0.0000000231470745892     0.0000000000018688356     0.0000000231500538615     0.0000000590257767246     0.0000001078068143300     0.0000001542795877948     0.0000001775731247675     0.0000001674063881310     0.0000001362744508724     0.0000001131069210762     0.0000000896621340393     0.0000000666527504894     0.0000000468673524801     0.0000000310396846223     0.0000000190046201747     0.0000000103448188950     0.0000000043902302061     -0.0000000000029437644 
    -0.0000000000027886094     0.0000000025385189749     0.0000000032025485802     0.0000000006460009797     -0.0000000057308034230     -0.0000000158973886278     -0.0000000293252518864     -0.0000000448607301524     -0.0000000603820537014     -0.0000000726551127716     -0.0000000797850701155     -0.0000000869317223286     -0.0000000824350413685     -0.0000000645432940437     -0.0000000406889058050     -0.0000000185518472423     0.0000000000001342896     0.0000000185514938364     0.0000000406868699956     0.0000000645390118316     0.0000000824285986569     0.0000000869237840466     0.0000000797766205324     0.0000000726470624109     0.0000000603747306927     0.0000000448541381363     0.0000000293192224635     0.0000000158917061142     0.0000000057252830672     -0.0000000006514851130     -0.0000000032080626148     -0.0000000025440767802     -0.0000000000027886094 
    -0.0000000000025348600     0.0000000097791694591     0.0000000171758626638     0.0000000204207422208     0.0000000187092952719     0.0000000122184547957     0.0000000019462436889     -0.0000000104740679613     -0.0000000229488109960     -0.0000000331733278717     -0.0000000390799319812     -0.0000000394852949717     -0.0000000368635175864     -0.0000000312999643858     -0.0000000219840016754     -0.0000000110399982771     -0.0000000000007275565     0.0000000110380822898     0.0000000219808508282     0.0000000312952030650     0.0000000368572880391     0.0000000394781934749     0.0000000390726247859     0.0000000331662893226     0.0000000229422944421     0.0000000104681066616     -0.0000000019517564610     -0.0000000122236744889     -0.0000000187143645312     -0.0000000204257638987     -0.0000000171808941262     -0.0000000097842268536     -0.0000000000025348600 
    -0.0000000000022130045     0.0000000171608496128     0.0000000312388911823     0.0000000398775834149     0.0000000419340923977     0.0000000376132033751     0.0000000282955671914     0.0000000161386078092     0.0000000035565429324     -0.0000000072921162086     -0.0000000148980260358     -0.0000000186086713028     -0.0000000186232958692     -0.0000000157763552163     -0.0000000111761686612     -0.0000000058127388746     -0.0000000000007509235     0.0000000058109182750     0.0000000111735008550     0.0000000157725868800     0.0000000186184684346     0.0000000186030842729     0.0000000148920977138     0.0000000072862282830     -0.0000000035621447069     -0.0000000161438336524     -0.0000000283004465554     -0.0000000376178286214     -0.0000000419385693700     -0.0000000398819991326     -0.0000000312432990212     -0.0000000171652689278     -0.0000000000022130045 
    -0.0000000000018523024     0.0000000245597651680     0.0000000451290361609     0.0000000586473717309     0.0000000636288647741     0.0000000603544301688     0.0000000506201746791     0.0000000371386082727     0.0000000227814017725     0.0000000099098843364     -0.0000000000025694315     -0.0000000063957439403     -0.0000000093999121172     -0.0000000095460435495     -0.0000000075376372419     -0.0000000041158057117     -0.0000000000003459828     0.0000000041148703170     0.0000000075360387332     0.0000000095435401481     0.0000000093964880250     0.0000000063915806273     -0.0000000000020400262     -0.0000000099146357176     -0.0000000227860566966     -0.0000000371430309949     -0.0000000506243315034     -0.0000000603583628230     -0.0000000636326511611     -0.0000000586510883066     -0.0000000451327343139     -0.0000000245634663581     -0.0000000000018523024 
    -0.0000000000014766481     0.0000000318239639408     0.0000000585442798373     0.0000000763229255020     0.0000000834168026000     0.0000000803378415327     0.0000000694018590809     0.0000000538922201355     0.0000000371369954295     0.0000000217840476305     0.0000000094571939299     0.0000000008028219771     -0.0000000042330425567     -0.0000000061096227636     -0.0000000054977272316     -0.0000000031807605360     -0.0000000000000501818     0.0000000031804699475     0.0000000054969145220     0.0000000061080835223     0.0000000042307338456     -0.0000000008057971256     -0.0000000094606359735     -0.0000000217877217976     -0.0000000371406880989     -0.0000000538957806798     -0.0000000694052201073     -0.0000000803410126042     -0.0000000834198405879     -0.0000000763258962991     -0.0000000585472304887     -0.0000000318269150119     -0.0000000000014766481 
    -0.0000000000011008488     0.0000000386301351906     0.0000000709111033833     0.0000000922160123294     0.0000001006700641793     0.0000000971842900243     0.0000000846909719792     0.0000000670291048821     0.0000000479075004020     0.0000000302094674958     0.0000000157220416388     0.0000000052177424105     -0.0000000012834614616     -0.0000000042442400708     -0.0000000044117844613     -0.0000000026812865955     0.0000000000000949902     0.0000000026813350210     0.0000000044114429727     0.0000000042433504991     0.0000000012819783915     -0.0000000052197614613     -0.0000000157244652023     -0.0000000302121261491     -0.0000000479102246788     -0.0000000670317614964     -0.0000000846934894917     -0.0000000971866627300     -0.0000001006723315518     -0.0000000922182261592     -0.0000000709133018380     -0.0000000386323347878     -0.0000000000011008488 
    -0.0000000000007302550     0.0000000443859060531     0.0000000812266525658     0.0000001051930261831     0.0000001143886641854     0.0000001102020503738     0.0000000961832193313     0.0000000766528347597     0.0000000555936430486     0.0000000360331950679     0.0000000198690623816     0.0000000079772069234     0.0000000004384697636     -0.0000000032263370458     -0.0000000038484572514     -0.0000000024288132037     0.0000000000001233193     0.0000000024289655229     0.0000000038483497044     0.0000000032258633196     -0.0000000004393433355     -0.0000000079784485331     -0.0000000198705919817     -0.0000000360349044079     -0.0000000555954181598     -0.0000000766545808002     -0.0000000961848812235     -0.0000001102036189288     -0.0000001143901636277     -0.0000001051944911262     -0.0000000812281089078     -0.0000000443873646001     -0.0000000000007302550 
    -0.0000000000003641267     0.0000000483102390977     0.0000000881922869697     0.0000001138233967833     0.0000001233382802977     0.0000001185195741954     0.0000001033841515175     0.0000000825847388052     0.0000000602648700082     0.0000000395191136019     0.0000000222995581917     0.0000000095438866725     0.0000000013721800620     -0.0000000027058694284     -0.0000000035772517051     -0.0000000023124677489     0.0000000000000788613     0.0000000023125782412     0.0000000035772322230     0.0000000027056670168     -0.0000000013725824439     -0.0000000095444743393     -0.0000000223002931873     -0.0000000395199437280     -0.0000000602657390425     -0.0000000825855986799     -0.0000001033849732357     -0.0000001185203517369     -0.0000001233390248761     -0.0000001138241253092     -0.0000000881930121846     -0.0000000483109661142     -0.0000000000003641267 
    0.0000000000000000000     0.0000000497114431496     0.0000000906670660650     0.0000001168656613341     0.0000001264615880884     0.0000001213907791763     0.0000001058449124727     0.0000000845956027149     0.0000000618387806916     0.0000000406869982830     0.0000000231076158253     0.0000000100582491656     0.0000000016723845782     -0.0000000025438157855     -0.0000000034961628343     -0.0000000022789225270     -0.0000000000000000000     0.0000000022789225270     0.0000000034961628343     0.0000000025438157855     -0.0000000016723845782     -0.0000000100582491656     -0.0000000231076158253     -0.0000000406869982830     -0.0000000618387806916     -0.0000000845956027149     -0.0000001058449124727     -0.0000001213907791763     -0.0000001264615880884     -0.0000001168656613341     -0.0000000906670660650     -0.0000000497114431496     0.0000000000000000000 
    0.0000000000000000000     0.0000000785514627923     0.0000001415100978805     0.0000001787786525740     0.0000001883204880285     0.0000001749671514205     0.0000001469789092750     0.0000001126484545025     0.0000000783594581223     0.0000000481706454121     0.0000000242292737754     0.0000000073131448600     -0.0000000028022253801     -0.0000000070947246486     -0.0000000070168330410     -0.0000000041615764229     -0.0000000000000000000     0.0000000041615764229     0.0000000070168330410     0.0000000070947246486     0.0000000028022253801     -0.0000000073131448600     -0.0000000242292737754     -0.0000000481706454121     -0.0000000783594581223     -0.0000001126484545025     -0.0000001469789092750     -0.0000001749671514205     -0.0000001883204880285     -0.0000001787786525740     -0.0000001415100978805     -0.0000000785514627923     0.0000000000000000000 
    0.0000000000002606026     0.0000000761267593674     0.0000001372695929311     0.0000001736616474112     0.0000001832214675559     0.0000001704796929095     0.0000001433498741452     0.0000001098830859558     0.0000000763567377080     0.0000000468069468462     0.0000000233809109347     0.0000000068524346212     -0.0000000030044456302     -0.0000000071533220063     -0.0000000070161637774     -0.0000000041509187476     -0.0000000000001051360     0.0000000041507529840     0.0000000070161218880     0.0000000071534575232     0.0000000030047778396     -0.0000000068519202926     -0.0000000233802557584     -0.0000000468062075875     -0.0000000763559734235     -0.0000001098823449864     -0.0000001433491847736     -0.0000001704790613208     -0.0000001832208838622     -0.0000001736610958133     -0.0000001372690597376     -0.0000000761262353578     0.0000000000002606026 
    0.0000000000005332294     0.0000000693740819645     0.0000001254146607881     0.0000001592659807543     0.0000001687554904108     0.0000001576241353882     0.0000001328499725049     0.0000001018109551584     0.0000000704684511162     0.0000000427724173121     0.0000000208530727983     0.0000000054637262168     -0.0000000036294814979     -0.0000000073498780289     -0.0000000070309049409     -0.0000000041280017745     -0.0000000000001731353     0.0000000041277439456     0.0000000070308933809     0.0000000073502191878     0.0000000036302129066     -0.0000000054626359129     -0.0000000208517092790     -0.0000000427708968657     -0.0000000704668927922     -0.0000001018094541641     -0.0000001328485819878     -0.0000001576228634256     -0.0000001687543132001     -0.0000001592648638708     -0.0000001254135758265     -0.0000000693730114099     0.0000000000005332294 
    0.0000000000008274653     0.0000000596059842640     0.0000001081327689207     0.0000001380158597851     0.0000001470460299315     0.0000001379606315189     0.0000001164739009393     0.0000000889941249346     0.0000000609711082825     0.0000000361647827400     0.0000000166335806066     0.0000000030756670634     -0.0000000047660973359     -0.0000000077610764265     -0.0000000071121512351     -0.0000000041170832733     -0.0000000000001667159     0.0000000041168815467     0.0000000071123157626     0.0000000077617633689     0.0000000047673567752     -0.0000000030738909715     -0.0000000166314249361     -0.0000000361624259444     -0.0000000609687258029     -0.0000000889918502761     -0.0000001164718020563     -0.0000001379587101067     -0.0000001470442431747     -0.0000001380141524565     -0.0000001081310980726     -0.0000000596043264126     0.0000000000008274653 
    0.0000000000011468842     0.0000000483453217283     0.0000000879813200420     0.0000001127802996565     0.0000001206438509619     0.0000001133848775383     0.0000000954188718389     0.0000000720552175026     0.0000000480734878936     0.0000000269149924856     0.0000000104886091668     -0.0000000006044100645     -0.0000000066738670949     -0.0000000085600548149     -0.0000000073443537848     -0.0000000041455333628     -0.0000000000000451726     0.0000000041456179494     0.0000000073449223833     0.0000000085613053452     0.0000000066758474762     0.0000000006070224545     -0.0000000104855654545     -0.0000000269117577732     -0.0000000480702801221     -0.0000000720521870262     -0.0000000954160814888     -0.0000001133823105616     -0.0000001206414419451     -0.0000001127779740603     -0.0000000879790236146     -0.0000000483430290273     0.0000000000011468842 
    0.0000000000014851938     0.0000000367982886035     0.0000000670182854628     0.0000000859240626019     0.0000000917076791461     0.0000000855226193456     0.0000000706621545519     0.0000000513524234472     0.0000000316127079218     0.0000000144747342173     0.0000000016619878669     -0.0000000063321002153     -0.0000000099250594998     -0.0000000100527334658     -0.0000000078134004820     -0.0000000042047270275     0.0000000000002288139     0.0000000042054042173     0.0000000078146793532     0.0000000100548410600     0.0000000099280169472     0.0000000063357392885     -0.0000000016579494647     -0.0000000144705955105     -0.0000000316087054847     -0.0000000513486911693     -0.0000000706587215602     -0.0000000855194351083     -0.0000000917046531407     -0.0000000859211052397     -0.0000000670153366981     -0.0000000367953261174     0.0000000000014851938 
    0.0000000000018245686     0.0000000256499140570     0.0000000464547477961     0.0000000589091761094     0.0000000616328049271     0.0000000554161014915     0.0000000426833465230     0.0000000266883618653     0.0000000107138122198     -0.0000000025653208978     -0.0000000114913932484     -0.0000000155939570678     -0.0000000155059933414     -0.0000000126071343412     -0.0000000084422329531     -0.0000000041192896331     0.0000000000006539369     0.0000000041208653686     0.0000000084445331700     0.0000000126104019104     0.0000000155101941504     0.0000000155988194868     0.0000000114965323943     0.0000000025703817171     -0.0000000107090600879     -0.0000000266840015296     -0.0000000426793442342     -0.0000000554123569264     -0.0000000616291988740     -0.0000000589056070797     -0.0000000464511546860     -0.0000000256462822694     0.0000000000018245686 
    0.0000000000021379545     0.0000000151738432883     0.0000000268235284196     0.0000000324548115055     0.0000000311504705290     0.0000000235335498373     0.0000000113684122055     -0.0000000028957804671     -0.0000000165109916615     -0.0000000268214714824     -0.0000000318003990302     -0.0000000307239021410     -0.0000000247054711550     -0.0000000175238207328     -0.0000000102749743716     -0.0000000043313793320     0.0000000000009283263     0.0000000043336068467     0.0000000102781886564     0.0000000175282969132     0.0000000247110394785     0.0000000307300782758     0.0000000318066781546     0.0000000268274405423     0.0000000165164377330     0.0000000029006890775     -0.0000000113639277597     -0.0000000235293285251     -0.0000000311463596692     -0.0000000324506970881     -0.0000000268193497372     -0.0000000151695959578     0.0000000000021379545 
    0.0000000000023942147     0.0000000054602987614     0.0000000083485499594     0.0000000069256892225     0.0000000006363525957     -0.0000000100473303262     -0.0000000239272807797     -0.0000000391467198012     -0.0000000530341361199     -0.0000000621594788583     -0.0000000631641211724     -0.0000000586405356540     -0.0000000484731143390     -0.0000000307468893990     -0.0000000132113639942     -0.0000000030629771876     0.0000000000005445453     0.0000000030645604769     0.0000000132142722002     0.0000000307515279500     0.0000000484793365897     0.0000000586477139960     0.0000000631713858630     0.0000000621662343026     0.0000000530401726516     0.0000000391520771977     0.0000000239321433986     0.0000000100519182314     -0.0000000006318509379     -0.0000000069211444808     -0.0000000083439004549     -0.0000000054555502520     0.0000000000023942147 
    0.0000000000025626324     -0.0000000034233804900     -0.0000000087923248293     -0.0000000173844547578     -0.0000000296407040126     -0.0000000454221786982     -0.0000000641410111330     -0.0000000842748535741     -0.0000001024387311672     -0.0000001129969496050     -0.0000001225305492398     -0.0000001183171687820     -0.0000000874733818604     -0.0000000423290669851     -0.0000000059405625134     0.0000000067686758311     -0.0000000000006059125     -0.0000000067692829727     0.0000000059415942306     0.0000000423322996485     0.0000000874787610800     0.0000001183240878152     0.0000001225380879348     0.0000001130041687551     0.0000001024451410361     0.0000000842804985594     0.0000000641461081823     0.0000000454269873119     0.0000000296454427316     0.0000000173892682653     0.0000000087972767782     0.0000000034284565605     0.0000000000025626324 
    0.0000000000026148380     -0.0000000113964125208     -0.0000000244083594842     -0.0000000401797808990     -0.0000000594033052398     -0.0000000826198115212     -0.0000001100181773414     -0.0000001401037767921     -0.0000001676086137615     -0.0000002012842559694     -0.0000002267121074253     -0.0000002022167868130     -0.0000001270486231821     -0.0000000361895276538     0.0000000252862520002     0.0000000330824209534     -0.0000000000023231282     -0.0000000330864061731     -0.0000000252884186981     0.0000000361898912731     0.0000001270516325816     0.0000002022219841003     0.0000002267186431668     0.0000002012911548651     0.0000001676150217528     0.0000001401094452083     0.0000001100232966632     0.0000000826246443536     0.0000000594080828919     0.0000000401846561140     0.0000000244133953402     0.0000000114015877079     0.0000000000026148380 
    0.0000000000025263548     -0.0000000183946240924     -0.0000000383411339873     -0.0000000611808865258     -0.0000000882723219274     -0.0000001212623840869     -0.0000001613510208190     -0.0000002067085382769     -0.0000002610703917825     -0.0000003373773087151     -0.0000003625608478443     -0.0000002944249598055     -0.0000001509131552218     0.0000000019921997740     0.0000000908901003222     0.0000000812867655158     -0.0000000000040992869     -0.0000000812943333780     -0.0000000908958982063     -0.0000000019954238609     0.0000001509128343603     0.0000002944273509931     0.0000003625653043870     0.0000003373829122265     0.0000002610762025165     0.0000002067138657645     0.0000001613558757545     0.0000001212669892715     0.0000000882768946474     0.0000000611855726514     0.0000000383459896007     0.0000000183996219685     0.0000000000025263548 
    0.0000000000022810864     -0.0000000243807643284     -0.0000000504649606406     -0.0000000800690851717     -0.0000001155756545283     -0.0000001601167324856     -0.0000002161050138682     -0.0000002812362484380     -0.0000003928523887928     -0.0000005021368406958     -0.0000005103193792230     -0.0000003780911683133     -0.0000001477321105013     0.0000000773681994013     0.0000001915091494466     0.0000001505284548808     -0.0000000000053127532     -0.0000001505385650143     -0.0000001915177743884     -0.0000000773745429855     0.0000001477285625634     0.0000003780905318355     0.0000005103212977490     0.0000005021405538339     0.0000003928569615304     0.0000002812408399548     0.0000002161092809619     0.0000001601208242873     0.0000001155797470274     0.0000000800733000356     0.0000000504693398140     0.0000000243852762166     0.0000000000022810864 
    0.0000000000018782524     -0.0000000293022068137     -0.0000000605936620389     -0.0000000963274251472     -0.0000001401018958890     -0.0000001967208537828     -0.0000002698626644053     -0.0000003690341226664     -0.0000005391621252906     -0.0000006697721502385     -0.0000006484290765586     -0.0000004410978801008     -0.0000001172342284823     0.0000001804329756401     0.0000003140530556660     0.0000002316981924499     -0.0000000000054962213     -0.0000002317088303690     -0.0000003140626350495     -0.0000001804408155350     0.0000001172287187681     0.0000004410950455793     0.0000006484288398310     0.0000006697739739858     0.0000005391651922971     0.0000003690376191567     0.0000002698660550282     0.0000001967241593394     0.0000001401052353296     0.0000000963308843157     0.0000000605972653571     0.0000000293059217937     0.0000000000018782524 
    0.0000000000013370404     -0.0000000330380599111     -0.0000000683825553426     -0.0000001091235977487     -0.0000001600187501350     -0.0000002274245193370     -0.0000003161214299208     -0.0000004567864089266     -0.0000006715023768527     -0.0000008131435907173     -0.0000007585272107726     -0.0000004798410085503     -0.0000000719100397061     0.0000002875607939748     0.0000004335402753635     0.0000003089659069189     -0.0000000000045054983     -0.0000003089747176036     -0.0000004335484603468     -0.0000002875678678132     0.0000000719045918611     0.0000004798375871020     0.0000007585259042005     0.0000008131440862546     0.0000006715040768606     0.0000004567886672648     0.0000003161237526934     0.0000002274268270346     0.0000001600211071155     0.0000001091260533344     0.0000000683851192079     0.0000000330407044938     0.0000000000013370404 
    0.0000000000006948050     -0.0000000354014689962     -0.0000000733532519006     -0.0000001174148392130     -0.0000001731785816066     -0.0000002481026695650     -0.0000003477086463746     -0.0000005210124405126     -0.0000007633881566416     -0.0000009092167864726     -0.0000008284863537224     -0.0000004984507199802     -0.0000000321010874414     0.0000003686859771614     0.0000005208230928925     0.0000003645894569260     -0.0000000000025295675     -0.0000003645944320619     -0.0000005208277932333     -0.0000003686901535899     0.0000000320977334117     0.0000004984484508447     0.0000008284852683593     0.0000009092167505987     0.0000007633888574673     0.0000005210135207097     0.0000003477098172390     0.0000002481038509663     0.0000001731797987455     0.0000001174161128103     0.0000000733545838741     0.0000000354028433226     0.0000000000006948050 
    0.0000000000000000000     -0.0000000362143117522     -0.0000000750697696051     -0.0000001202989262903     -0.0000001777982328234     -0.0000002554242335252     -0.0000003589579531696     -0.0000005445209385845     -0.0000007962371543670     -0.0000009429624377905     -0.0000008523507092350     -0.0000005036116191380     -0.0000000163479824670     0.0000003989306522335     0.0000005528284072206     0.0000003848437717886     -0.0000000000000000000     -0.0000003848437717886     -0.0000005528284072206     -0.0000003989306522335     0.0000000163479824670     0.0000005036116191380     0.0000008523507092350     0.0000009429624377905     0.0000007962371543670     0.0000005445209385845     0.0000003589579531696     0.0000002554242335252     0.0000001777982328234     0.0000001202989262903     0.0000000750697696051     0.0000000362143117522     0.0000000000000000000 
    -0.0000000000006948050     -0.0000000354028433226     -0.0000000733545838741     -0.0000001174161128103     -0.0000001731797987455     -0.0000002481038509663     -0.0000003477098172390     -0.0000005210135207097     -0.0000007633888574673     -0.0000009092167505987     -0.0000008284852683593     -0.0000004984484508447     -0.0000000320977334117     0.0000003686901535899     0.0000005208277932333     0.0000003645944320619     0.0000000000025295675     -0.0000003645894569260     -0.0000005208230928925     -0.0000003686859771614     0.0000000321010874414     0.0000004984507199802     0.0000008284863537224     0.0000009092167864726     0.0000007633881566416     0.0000005210124405126     0.0000003477086463746     0.0000002481026695650     0.0000001731785816066     0.0000001174148392130     0.0000000733532519006     0.0000000354014689962     -0.0000000000006948050 
    -0.0000000000013370404     -0.0000000330407044938     -0.0000000683851192079     -0.0000001091260533344     -0.0000001600211071155     -0.0000002274268270346     -0.0000003161237526934     -0.0000004567886672648     -0.0000006715040768606     -0.0000008131440862546     -0.0000007585259042005     -0.0000004798375871020     -0.0000000719045918611     0.0000002875678678132     0.0000004335484603468     0.0000003089747176036     0.0000000000045054983     -0.0000003089659069189     -0.0000004335402753635     -0.0000002875607939748     0.0000000719100397061     0.0000004798410085503     0.0000007585272107726     0.0000008131435907173     0.0000006715023768527     0.0000004567864089266     0.0000003161214299208     0.0000002274245193370     0.0000001600187501350     0.0000001091235977487     0.0000000683825553426     0.0000000330380599111     -0.0000000000013370404 
    -0.0000000000018782524     -0.0000000293059217937     -0.0000000605972653571     -0.0000000963308843157     -0.0000001401052353296     -0.0000001967241593394     -0.0000002698660550282     -0.0000003690376191567     -0.0000005391651922971     -0.0000006697739739858     -0.0000006484288398310     -0.0000004410950455793     -0.0000001172287187681     0.0000001804408155350     0.0000003140626350495     0.0000002317088303690     0.0000000000054962213     -0.0000002316981924499     -0.0000003140530556660     -0.0000001804329756401     0.0000001172342284823     0.0000004410978801008     0.0000006484290765586     0.0000006697721502385     0.0000005391621252906     0.0000003690341226664     0.0000002698626644053     0.0000001967208537828     0.0000001401018958890     0.0000000963274251472     0.0000000605936620389     0.0000000293022068137     -0.0000000000018782524 
    -0.0000000000022810864     -0.0000000243852762166     -0.0000000504693398140     -0.0000000800733000356     -0.0000001155797470274     -0.0000001601208242873     -0.0000002161092809619     -0.0000002812408399548     -0.0000003928569615304     -0.0000005021405538339     -0.0000005103212977490     -0.0000003780905318355     -0.0000001477285625634     0.0000000773745429855     0.0000001915177743884     0.0000001505385650143     0.0000000000053127532     -0.0000001505284548808     -0.0000001915091494466     -0.0000000773681994013     0.0000001477321105013     0.0000003780911683133     0.0000005103193792230     0.0000005021368406958     0.0000003928523887928     0.0000002812362484380     0.0000002161050138682     0.0000001601167324856     0.0000001155756545283     0.0000000800690851717     0.0000000504649606406     0.0000000243807643284     -0.0000000000022810864 
    -0.0000000000025263548     -0.0000000183996219685     -0.0000000383459896007     -0.0000000611855726514     -0.0000000882768946474     -0.0000001212669892715     -0.0000001613558757545     -0.0000002067138657645     -0.0000002610762025165     -0.0000003373829122265     -0.0000003625653043870     -0.0000002944273509931     -0.0000001509128343603     0.0000000019954238609     0.0000000908958982063     0.0000000812943333780     0.0000000000040992869     -0.0000000812867655158     -0.0000000908901003222     -0.0000000019921997740     0.0000001509131552218     0.0000002944249598055     0.0000003625608478443     0.0000003373773087151     0.0000002610703917825     0.0000002067085382769     0.0000001613510208190     0.0000001212623840869     0.0000000882723219274     0.0000000611808865258     0.0000000383411339873     0.0000000183946240924     -0.0000000000025263548 
    -0.0000000000026148380     -0.0000000114015877079     -0.0000000244133953402     -0.0000000401846561140     -0.0000000594080828919     -0.0000000826246443536     -0.0000001100232966632     -0.0000001401094452083     -0.0000001676150217528     -0.0000002012911548651     -0.0000002267186431668     -0.0000002022219841003     -0.0000001270516325816     -0.0000000361898912731     0.0000000252884186981     0.0000000330864061731     0.0000000000023231282     -0.0000000330824209534     -0.0000000252862520002     0.0000000361895276538     0.0000001270486231821     0.0000002022167868130     0.0000002267121074253     0.0000002012842559694     0.0000001676086137615     0.0000001401037767921     0.0000001100181773414     0.0000000826198115212     0.0000000594033052398     0.0000000401797808990     0.0000000244083594842     0.0000000113964125208     -0.0000000000026148380 
    -0.0000000000025626324     -0.0000000034284565605     -0.0000000087972767782     -0.0000000173892682653     -0.0000000296454427316     -0.0000000454269873119     -0.0000000641461081823     -0.0000000842804985594     -0.0000001024451410361     -0.0000001130041687551     -0.0000001225380879348     -0.0000001183240878152     -0.0000000874787610800     -0.0000000423322996485     -0.0000000059415942306     0.0000000067692829727     0.0000000000006059125     -0.0000000067686758311     0.0000000059405625134     0.0000000423290669851     0.0000000874733818604     0.0000001183171687820     0.0000001225305492398     0.0000001129969496050     0.0000001024387311672     0.0000000842748535741     0.0000000641410111330     0.0000000454221786982     0.0000000296407040126     0.0000000173844547578     0.0000000087923248293     0.0000000034233804900     -0.0000000000025626324 
    -0.0000000000023942147     0.0000000054555502520     0.0000000083439004549     0.0000000069211444808     0.0000000006318509379     -0.0000000100519182314     -0.0000000239321433986     -0.0000000391520771977     -0.0000000530401726516     -0.0000000621662343026     -0.0000000631713858630     -0.0000000586477139960     -0.0000000484793365897     -0.0000000307515279500     -0.0000000132142722002     -0.0000000030645604769     -0.0000000000005445453     0.0000000030629771876     0.0000000132113639942     0.0000000307468893990     0.0000000484731143390     0.0000000586405356540     0.0000000631641211724     0.0000000621594788583     0.0000000530341361199     0.0000000391467198012     0.0000000239272807797     0.0000000100473303262     -0.0000000006363525957     -0.0000000069256892225     -0.0000000083485499594     -0.0000000054602987614     -0.0000000000023942147 
    -0.0000000000021379545     0.0000000151695959578     0.0000000268193497372     0.0000000324506970881     0.0000000311463596692     0.0000000235293285251     0.0000000113639277597     -0.0000000029006890775     -0.0000000165164377330     -0.0000000268274405423     -0.0000000318066781546     -0.0000000307300782758     -0.0000000247110394785     -0.0000000175282969132     -0.0000000102781886564     -0.0000000043336068467     -0.0000000000009283263     0.0000000043313793320     0.0000000102749743716     0.0000000175238207328     0.0000000247054711550     0.0000000307239021410     0.0000000318003990302     0.0000000268214714824     0.0000000165109916615     0.0000000028957804671     -0.0000000113684122055     -0.0000000235335498373     -0.0000000311504705290     -0.0000000324548115055     -0.0000000268235284196     -0.0000000151738432883     -0.0000000000021379545 
    -0.0000000000018245686     0.0000000256462822694     0.0000000464511546860     0.0000000589056070797     0.0000000616291988740     0.0000000554123569264     0.0000000426793442342     0.0000000266840015296     0.0000000107090600879     -0.0000000025703817171     -0.0000000114965323943     -0.0000000155988194868     -0.0000000155101941504     -0.0000000126104019104     -0.0000000084445331700     -0.0000000041208653686     -0.0000000000006539369     0.0000000041192896331     0.0000000084422329531     0.0000000126071343412     0.0000000155059933414     0.0000000155939570678     0.0000000114913932484     0.0000000025653208978     -0.0000000107138122198     -0.0000000266883618653     -0.0000000426833465230     -0.0000000554161014915     -0.0000000616328049271     -0.0000000589091761094     -0.0000000464547477961     -0.0000000256499140570     -0.0000000000018245686 
    -0.0000000000014851938     0.0000000367953261174     0.0000000670153366981     0.0000000859211052397     0.0000000917046531407     0.0000000855194351083     0.0000000706587215602     0.0000000513486911693     0.0000000316087054847     0.0000000144705955105     0.0000000016579494647     -0.0000000063357392885     -0.0000000099280169472     -0.0000000100548410600     -0.0000000078146793532     -0.0000000042054042173     -0.0000000000002288139     0.0000000042047270275     0.0000000078134004820     0.0000000100527334658     0.0000000099250594998     0.0000000063321002153     -0.0000000016619878669     -0.0000000144747342173     -0.0000000316127079218     -0.0000000513524234472     -0.0000000706621545519     -0.0000000855226193456     -0.0000000917076791461     -0.0000000859240626019     -0.0000000670182854628     -0.0000000367982886035     -0.0000000000014851938 
    -0.0000000000011468842     0.0000000483430290273     0.0000000879790236146     0.0000001127779740603     0.0000001206414419451     0.0000001133823105616     0.0000000954160814888     0.0000000720521870262     0.0000000480702801221     0.0000000269117577732     0.0000000104855654545     -0.0000000006070224545     -0.0000000066758474762     -0.0000000085613053452     -0.0000000073449223833     -0.0000000041456179494     0.0000000000000451726     0.0000000041455333628     0.0000000073443537848     0.0000000085600548149     0.0000000066738670949     0.0000000006044100645     -0.0000000104886091668     -0.0000000269149924856     -0.0000000480734878936     -0.0000000720552175026     -0.0000000954188718389     -0.0000001133848775383     -0.0000001206438509619     -0.0000001127802996565     -0.0000000879813200420     -0.0000000483453217283     -0.0000000000011468842 
    -0.0000000000008274653     0.0000000596043264126     0.0000001081310980726     0.0000001380141524565     0.0000001470442431747     0.0000001379587101067     0.0000001164718020563     0.0000000889918502761     0.0000000609687258029     0.0000000361624259444     0.0000000166314249361     0.0000000030738909715     -0.0000000047673567752     -0.0000000077617633689     -0.0000000071123157626     -0.0000000041168815467     0.0000000000001667159     0.0000000041170832733     0.0000000071121512351     0.0000000077610764265     0.0000000047660973359     -0.0000000030756670634     -0.0000000166335806066     -0.0000000361647827400     -0.0000000609711082825     -0.0000000889941249346     -0.0000001164739009393     -0.0000001379606315189     -0.0000001470460299315     -0.0000001380158597851     -0.0000001081327689207     -0.0000000596059842640     -0.0000000000008274653 
    -0.0000000000005332294     0.0000000693730114099     0.0000001254135758265     0.0000001592648638708     0.0000001687543132001     0.0000001576228634256     0.0000001328485819878     0.0000001018094541641     0.0000000704668927922     0.0000000427708968657     0.0000000208517092790     0.0000000054626359129     -0.0000000036302129066     -0.0000000073502191878     -0.0000000070308933809     -0.0000000041277439456     0.0000000000001731353     0.0000000041280017745     0.0000000070309049409     0.0000000073498780289     0.0000000036294814979     -0.0000000054637262168     -0.0000000208530727983     -0.0000000427724173121     -0.0000000704684511162     -0.0000001018109551584     -0.0000001328499725049     -0.0000001576241353882     -0.0000001687554904108     -0.0000001592659807543     -0.0000001254146607881     -0.0000000693740819645     -0.0000000000005332294 
    -0.0000000000002606026     0.0000000761262353578     0.0000001372690597376     0.0000001736610958133     0.0000001832208838622     0.0000001704790613208     0.0000001433491847736     0.0000001098823449864     0.0000000763559734235     0.0000000468062075875     0.0000000233802557584     0.0000000068519202926     -0.0000000030047778396     -0.0000000071534575232     -0.0000000070161218880     -0.0000000041507529840     0.0000000000001051360     0.0000000041509187476     0.0000000070161637774     0.0000000071533220063     0.0000000030044456302     -0.0000000068524346212     -0.0000000233809109347     -0.0000000468069468462     -0.0000000763567377080     -0.0000001098830859558     -0.0000001433498741452     -0.0000001704796929095     -0.0000001832214675559     -0.0000001736616474112     -0.0000001372695929311     -0.0000000761267593674     -0.0000000000002606026 
    0.0000000000000000000     0.0000000785514627923     0.0000001415100978805     0.0000001787786525740     0.0000001883204880285     0.0000001749671514205     0.0000001469789092750     0.0000001126484545025     0.0000000783594581223     0.0000000481706454121     0.0000000242292737754     0.0000000073131448600     -0.0000000028022253801     -0.0000000070947246486     -0.0000000070168330410     -0.0000000041615764229     -0.0000000000000000000     0.0000000041615764229     0.0000000070168330410     0.0000000070947246486     0.0000000028022253801     -0.0000000073131448600     -0.0000000242292737754     -0.0000000481706454121     -0.0000000783594581223     -0.0000001126484545025     -0.0000001469789092750     -0.0000001749671514205     -0.0000001883204880285     -0.0000001787786525740     -0.0000001415100978805     -0.0000000785514627923     0.0000000000000000000 
    0.0000000000000000000     0.0000001226918277249     0.0000002177409854199     0.0000002682550335867     0.0000002727679701953     0.0000002422212818917     0.0000001926038664076     0.0000001382144187626     0.0000000884393915406     0.0000000478661449884     0.0000000179115914439     -0.0000000016747471186     -0.0000000120435195377     -0.0000000149661942479     -0.0000000125814847424     -0.0000000070042237522     -0.0000000000000000000     0.0000000070042237522     0.0000000125814847424     0.0000000149661942479     0.0000000120435195377     0.0000000016747471186     -0.0000000179115914439     -0.0000000478661449884     -0.0000000884393915406     -0.0000001382144187626     -0.0000001926038664076     -0.0000002422212818917     -0.0000002727679701953     -0.0000002682550335867     -0.0000002177409854199     -0.0000001226918277249     0.0000000000000000000 
    0.0000000000001203405     0.0000001185012194763     0.0000002104854085070     0.0000002596655001328     0.0000002644761868118     0.0000002352720801717     0.0000001873641183187     0.0000001345763956659     0.0000000860945741695     0.0000000464898184117     0.0000000172279993638     -0.0000000018951491675     -0.0000000119959770092     -0.0000000148086015426     -0.0000000124249626079     -0.0000000069126292188     -0.0000000000001443621     0.0000000069123822874     0.0000000124248331916     0.0000000148086431275     0.0000000119962108031     0.0000000018955612611     -0.0000000172274524653     -0.0000000464891975156     -0.0000000860939421813     -0.0000001345758038027     -0.0000001873635974100     -0.0000002352716391848     -0.0000002644758181674     -0.0000002596651882025     -0.0000002104851362933     -0.0000001185009708905     0.0000000000001203405 
    0.0000000000002658487     0.0000001068938410592     0.0000001903328865560     0.0000002356974955884     0.0000002411909869577     0.0000002156033453734     0.0000001724036605657     0.0000001240978948737     0.0000000792874747327     0.0000000424683012343     0.0000000152203246075     -0.0000000025450874869     -0.0000000118549176602     -0.0000000143399333438     -0.0000000119580197896     -0.0000000066386513004     -0.0000000000002480328     0.0000000066382378008     0.0000000119578383996     0.0000000143400893446     0.0000000118554517178     0.0000000025459696955     -0.0000000152191835210     -0.0000000424670247037     -0.0000000792861889986     -0.0000001240967005783     -0.0000001724026149774     -0.0000002156024599009     -0.0000002411902393499     -0.0000002356968492899     -0.0000001903323061460     -0.0000001068932974560     0.0000000000002658487 
    0.0000000000004567589     0.0000000903205254925     0.0000001613959792481     0.0000002009588060897     0.0000002070056299747     0.0000001862679811227     0.0000001496932351614     0.0000001079022717838     0.0000000685867565568     0.0000000360483906342     0.0000000119662362703     -0.0000000036212680504     -0.0000000116340788614     -0.0000000135633880188     -0.0000000111710098853     -0.0000000061718221039     -0.0000000000002751294     0.0000000061713936859     0.0000000111709231625     0.0000000135637951568     0.0000000116350334941     0.0000000036227174213     -0.0000000119644320014     -0.0000000360464179185     -0.0000000685848001127     -0.0000001079004725829     -0.0000001496916657126     -0.0000001862666442082     -0.0000002070044796180     -0.0000002009577794787     -0.0000001613950224487     -0.0000000903196021684     0.0000000000004567589 
    0.0000000000007029794     0.0000000716822087832     0.0000001285729893165     0.0000001609934200632     0.0000001669091606868     0.0000001510343047093     0.0000001216766080651     0.0000000873521364086     0.0000000546175920757     0.0000000274172036822     0.0000000074362016075     -0.0000000052117746340     -0.0000000113785220984     -0.0000000124454996370     -0.0000000099818054674     -0.0000000054458977273     -0.0000000000001907075     0.0000000054456759886     0.0000000099820286552     0.0000000124463568140     0.0000000113800650287     0.0000000052139127415     -0.0000000074336665637     -0.0000000274145166754     -0.0000000546149800101     -0.0000000873497584621     -0.0000001216745316974     -0.0000001510325107081     -0.0000001669075736079     -0.0000001609919506942     -0.0000001285715689743     -0.0000000716808013640     0.0000000000007029794 
    0.0000000000009993123     0.0000000533386866713     0.0000000958978028121     0.0000001204554750311     0.0000001251882511108     0.0000001132067231875     0.0000000904964979626     0.0000000635583689552     0.0000000377254798442     0.0000000164461026216     0.0000000013050400124     -0.0000000075940557551     -0.0000000111534875106     -0.0000000108121210589     -0.0000000080968502779     -0.0000000042419420088     0.0000000000000409863     0.0000000042422201412     0.0000000080976688172     0.0000000108136905256     0.0000000111558340579     0.0000000075970275251     -0.0000000013017104104     -0.0000000164427088118     -0.0000000377222629713     -0.0000000635554718472     -0.0000000904939549262     -0.0000001132044787021     -0.0000001251861987911     -0.0000001204535046953     -0.0000000958958383001     -0.0000000533367000510     0.0000000000009993123 
    0.0000000000013238771     0.0000000366473149584     0.0000000657514385116     0.0000000821986069273     0.0000000845822616244     0.0000000749519591576     0.0000000574996531971     0.0000000370085486856     0.0000000176680256095     0.0000000024273509082     -0.0000000072338079027     -0.0000000112850548901     -0.0000000109216686590     -0.0000000080801320278     -0.0000000047021939394     -0.0000000019819867891     0.0000000000004348942     0.0000000019830876326     0.0000000047039214908     0.0000000080827001388     0.0000000109250505891     0.0000000112890113179     0.0000000072379911745     -0.0000000024232709674     -0.0000000176642729533     -0.0000000370052123972     -0.0000000574967052626     -0.0000000749492940855     -0.0000000845797422520     -0.0000000821961091910     -0.0000000657488866714     -0.0000000366446960501     0.0000000000013238771 
    0.0000000000016420052     0.0000000220692808382     0.0000000390111659857     0.0000000473894686230     0.0000000463150962888     0.0000000372432886573     0.0000000231065849149     0.0000000073790721243     -0.0000000066043198330     -0.0000000161247653474     -0.0000000195614700929     -0.0000000169295895965     -0.0000000101704425864     -0.0000000026773941239     0.0000000020700511039     0.0000000026102171609     0.0000000000008975157     -0.0000000026081386660     -0.0000000020672262140     0.0000000026811467006     0.0000000101750021950     0.0000000169346128502     0.0000000195665234817     0.0000000161294916280     0.0000000066085336357     -0.0000000073753814266     -0.0000000231033077644     -0.0000000372402603687     -0.0000000463121488577     -0.0000000473864690282     -0.0000000390080445101     -0.0000000220660435941     0.0000000000016420052 
    0.0000000000019146744     0.0000000095489551675     0.0000000156675466248     0.0000000161623657592     0.0000000106273227536     0.0000000002003522446     -0.0000000130283616887     -0.0000000264270202320     -0.0000000369596398037     -0.0000000414456228562     -0.0000000374497495082     -0.0000000248467838882     -0.0000000087723918118     0.0000000071599489808     0.0000000163202024590     0.0000000130827490300     0.0000000000009539799     -0.0000000130804734315     -0.0000000163169537376     -0.0000000071554709384     0.0000000087779056025     0.0000000248527572168     0.0000000374555606109     0.0000000414508915838     0.0000000369642188181     0.0000000264309750775     0.0000000130318818121     -0.0000000001970438962     -0.0000000106240287108     -0.0000000161589464745     -0.0000000156639408915     -0.0000000095451887930     0.0000000000019146744 
    0.0000000000021067131     -0.0000000011424512643     -0.0000000045999252644     -0.0000000117377721365     -0.0000000226498303383     -0.0000000364581808986     -0.0000000516548745529     -0.0000000659388215840     -0.0000000756937364691     -0.0000000760115731049     -0.0000000634510786579     -0.0000000422595971057     -0.0000000062933052235     0.0000000322386350694     0.0000000511381493082     0.0000000377258490400     0.0000000000003932339     -0.0000000377246166832     -0.0000000511357258047     -0.0000000322346666862     0.0000000062986712579     0.0000000422657841358     0.0000000634572959332     0.0000000760171526226     0.0000000756985227065     0.0000000659429224185     0.0000000516585318244     0.0000000364616601966     0.0000000226533518331     0.0000000117414791035     0.0000000046038696030     0.0000000011465899330     0.0000000000021067131 
    0.0000000000021903965     -0.0000000102270911304     -0.0000000221127908109     -0.0000000365853487054     -0.0000000537074687126     -0.0000000729913358449     -0.0000000933946603327     -0.0000001123961635500     -0.0000001245768638675     -0.0000001230626059002     -0.0000001125322902057     -0.0000000667726450677     0.0000000130986334967     0.0000000908088449634     0.0000001218712142265     0.0000000853071982095     -0.0000000000007204742     -0.0000000853081447280     -0.0000001218708230792     -0.0000000908066600313     -0.0000000130946958810     0.0000000667778506415     0.0000001125380199789     0.0000001230680880140     0.0000001245816034227     0.0000001124002358537     0.0000000933983119801     0.0000000729948450896     0.0000000537110635010     0.0000000365891697255     0.0000000221168795487     0.0000000102313916475     0.0000000000021903965 
    0.0000000000021451822     -0.0000000178717013743     -0.0000000371016236456     -0.0000000585346457093     -0.0000000825348279133     -0.0000001092447689554     -0.0000001380720068797     -0.0000001657076960841     -0.0000001834613713389     -0.0000001995209765116     -0.0000001789496836506     -0.0000000834481987645     0.0000000645611984412     0.0000001961126914753     0.0000002381364754416     0.0000001608223798517     -0.0000000000020616051     -0.0000001608260129554     -0.0000002381387615818     -0.0000001961130999884     -0.0000000645596236979     0.0000000834514523853     0.0000001789540125592     0.0000001995256530288     0.0000001834657284866     0.0000001657115034686     0.0000001380754645709     0.0000001092481305986     0.0000000825383074969     0.0000000585383710407     0.0000000371056238019     0.0000000178759127568     0.0000000000021451822 
    0.0000000000019581024     -0.0000000241853231094     -0.0000000496893194358     -0.0000000775573851246     -0.0000001087533945523     -0.0000001442946577118     -0.0000001840607360411     -0.0000002234328178876     -0.0000002610764522311     -0.0000002971218010245     -0.0000002479400982599     -0.0000000812050621481     0.0000001534896002284     0.0000003480209225655     0.0000003966827465440     0.0000002613779201318     -0.0000000000031477467     -0.0000002613837897479     -0.0000003966874237059     -0.0000003480238635404     -0.0000001534905594091     0.0000000812060024921     0.0000002479425432111     0.0000002971251360074     0.0000002610800112367     0.0000002234361004016     0.0000001840637834933     0.0000001442976670657     0.0000001087565435660     0.0000000775607776571     0.0000000496929707340     0.0000000241891679203     0.0000000000019581024 
    0.0000000000016274328     -0.0000000292106928689     -0.0000000598632953656     -0.0000000933781356690     -0.0000001314948734834     -0.0000001762413482512     -0.0000002279628667770     -0.0000002803729959553     -0.0000003534055978946     -0.0000003974463068874     -0.0000003070184273580     -0.0000000581308642806     0.0000002698809636536     0.0000005279359435064     0.0000005776499871995     0.0000003742579895954     -0.0000000000035465704     -0.0000003742647641152     -0.0000005776558501782     -0.0000005279404144129     -0.0000002698837197344     0.0000000581299271222     0.0000003070191296109     0.0000003974481976918     0.0000003534080880149     0.0000002803755405555     0.0000002279653026359     0.0000001762438013614     0.0000001314974711305     0.0000000933809509366     0.0000000598663310737     0.0000000292138892207     0.0000000000016274328 
    0.0000000000011674529     -0.0000000329136424589     -0.0000000674546761140     -0.0000001054564989232     -0.0000001494258533890     -0.0000002023443190464     -0.0000002649488833440     -0.0000003326947403392     -0.0000004392786787562     -0.0000004828220198050     -0.0000003491941325939     -0.0000000231082996200     0.0000003887882884229     0.0000007011095537607     0.0000007476060278183     0.0000004790425806571     -0.0000000000030547485     -0.0000004790484908430     -0.0000007476113544297     -0.0000007011139446892     -0.0000003887914431590     0.0000000231065652406     0.0000003491937902678     0.0000004828227932125     0.0000004392801306631     0.0000003326964283455     0.0000002649505639288     0.0000002023460469580     0.0000001494277044070     0.0000001054585158564     0.0000000674568544735     0.0000000329159359019     0.0000000000011674529 
    0.0000000000006098620     -0.0000000352015961282     -0.0000000721863428809     -0.0000001131035719998     -0.0000001610215517590     -0.0000002196044251452     -0.0000002898445450721     -0.0000003727944597055     -0.0000004995874634637     -0.0000005395402177647     -0.0000003732212388034     0.0000000080245068019     0.0000004782147876716     0.0000008269057862306     0.0000008691804687007     0.0000005534349671612     -0.0000000000017613069     -0.0000005534383976326     -0.0000008691836239175     -0.0000008269084821235     -0.0000004782168440842     -0.0000000080257882753     0.0000003732207550941     0.0000005395404067712     0.0000004995880936999     0.0000003727952829306     0.0000002898453971669     0.0000002196053156521     0.0000001610225140304     0.0000001131046246056     0.0000000721874810335     0.0000000352027943659     0.0000000000006098620 
    -0.0000000000000000000     -0.0000000359781779177     -0.0000000737991525588     -0.0000001157304415019     -0.0000001650461763753     -0.0000002256582157069     -0.0000002986464848610     -0.0000003877454855309     -0.0000005212350736308     -0.0000005593452067024     -0.0000003808526453412     0.0000000204136511516     0.0000005114750653512     0.0000008729416807294     0.0000009133402620570     0.0000005803562934814     -0.0000000000000000000     -0.0000005803562934814     -0.0000009133402620570     -0.0000008729416807294     -0.0000005114750653512     -0.0000000204136511516     0.0000003808526453412     0.0000005593452067024     0.0000005212350736308     0.0000003877454855309     0.0000002986464848610     0.0000002256582157069     0.0000001650461763753     0.0000001157304415019     0.0000000737991525588     0.0000000359781779177     -0.0000000000000000000 
    -0.0000000000006098620     -0.0000000352027943659     -0.0000000721874810335     -0.0000001131046246056     -0.0000001610225140304     -0.0000002196053156521     -0.0000002898453971669     -0.0000003727952829306     -0.0000004995880936999     -0.0000005395404067712     -0.0000003732207550941     0.0000000080257882753     0.0000004782168440842     0.0000008269084821235     0.0000008691836239175     0.0000005534383976326     0.0000000000017613069     -0.0000005534349671612     -0.0000008691804687007     -0.0000008269057862306     -0.0000004782147876716     -0.0000000080245068019     0.0000003732212388034     0.0000005395402177647     0.0000004995874634637     0.0000003727944597055     0.0000002898445450721     0.0000002196044251452     0.0000001610215517590     0.0000001131035719998     0.0000000721863428809     0.0000000352015961282     -0.0000000000006098620 
    -0.0000000000011674529     -0.0000000329159359019     -0.0000000674568544735     -0.0000001054585158564     -0.0000001494277044070     -0.0000002023460469580     -0.0000002649505639288     -0.0000003326964283455     -0.0000004392801306631     -0.0000004828227932125     -0.0000003491937902678     -0.0000000231065652406     0.0000003887914431590     0.0000007011139446892     0.0000007476113544297     0.0000004790484908430     0.0000000000030547485     -0.0000004790425806571     -0.0000007476060278183     -0.0000007011095537607     -0.0000003887882884229     0.0000000231082996200     0.0000003491941325939     0.0000004828220198050     0.0000004392786787562     0.0000003326947403392     0.0000002649488833440     0.0000002023443190464     0.0000001494258533890     0.0000001054564989232     0.0000000674546761140     0.0000000329136424589     -0.0000000000011674529 
    -0.0000000000016274328     -0.0000000292138892207     -0.0000000598663310737     -0.0000000933809509366     -0.0000001314974711305     -0.0000001762438013614     -0.0000002279653026359     -0.0000002803755405555     -0.0000003534080880149     -0.0000003974481976918     -0.0000003070191296109     -0.0000000581299271222     0.0000002698837197344     0.0000005279404144129     0.0000005776558501782     0.0000003742647641152     0.0000000000035465704     -0.0000003742579895954     -0.0000005776499871995     -0.0000005279359435064     -0.0000002698809636536     0.0000000581308642806     0.0000003070184273580     0.0000003974463068874     0.0000003534055978946     0.0000002803729959553     0.0000002279628667770     0.0000001762413482512     0.0000001314948734834     0.0000000933781356690     0.0000000598632953656     0.0000000292106928689     -0.0000000000016274328 
    -0.0000000000019581024     -0.0000000241891679203     -0.0000000496929707340     -0.0000000775607776571     -0.0000001087565435660     -0.0000001442976670657     -0.0000001840637834933     -0.0000002234361004016     -0.0000002610800112367     -0.0000002971251360074     -0.0000002479425432111     -0.0000000812060024921     0.0000001534905594091     0.0000003480238635404     0.0000003966874237059     0.0000002613837897479     0.0000000000031477467     -0.0000002613779201318     -0.0000003966827465440     -0.0000003480209225655     -0.0000001534896002284     0.0000000812050621481     0.0000002479400982599     0.0000002971218010245     0.0000002610764522311     0.0000002234328178876     0.0000001840607360411     0.0000001442946577118     0.0000001087533945523     0.0000000775573851246     0.0000000496893194358     0.0000000241853231094     -0.0000000000019581024 
    -0.0000000000021451822     -0.0000000178759127568     -0.0000000371056238019     -0.0000000585383710407     -0.0000000825383074969     -0.0000001092481305986     -0.0000001380754645709     -0.0000001657115034686     -0.0000001834657284866     -0.0000001995256530288     -0.0000001789540125592     -0.0000000834514523853     0.0000000645596236979     0.0000001961130999884     0.0000002381387615818     0.0000001608260129554     0.0000000000020616050     -0.0000001608223798517     -0.0000002381364754416     -0.0000001961126914753     -0.0000000645611984412     0.0000000834481987645     0.0000001789496836506     0.0000001995209765116     0.0000001834613713389     0.0000001657076960841     0.0000001380720068797     0.0000001092447689554     0.0000000825348279133     0.0000000585346457093     0.0000000371016236456     0.0000000178717013743     -0.0000000000021451822 
    -0.0000000000021903965     -0.0000000102313916475     -0.0000000221168795487     -0.0000000365891697255     -0.0000000537110635010     -0.0000000729948450896     -0.0000000933983119801     -0.0000001124002358537     -0.0000001245816034227     -0.0000001230680880140     -0.0000001125380199789     -0.0000000667778506415     0.0000000130946958810     0.0000000908066600313     0.0000001218708230792     0.0000000853081447280     0.0000000000007204742     -0.0000000853071982095     -0.0000001218712142265     -0.0000000908088449634     -0.0000000130986334967     0.0000000667726450677     0.0000001125322902057     0.0000001230626059002     0.0000001245768638675     0.0000001123961635500     0.0000000933946603327     0.0000000729913358449     0.0000000537074687126     0.0000000365853487054     0.0000000221127908109     0.0000000102270911304     -0.0000000000021903965 
    -0.0000000000021067131     -0.0000000011465899330     -0.0000000046038696030     -0.0000000117414791035     -0.0000000226533518331     -0.0000000364616601966     -0.0000000516585318244     -0.0000000659429224185     -0.0000000756985227065     -0.0000000760171526226     -0.0000000634572959332     -0.0000000422657841358     -0.0000000062986712579     0.0000000322346666862     0.0000000511357258047     0.0000000377246166832     -0.0000000000003932339     -0.0000000377258490400     -0.0000000511381493082     -0.0000000322386350694     0.0000000062933052235     0.0000000422595971057     0.0000000634510786579     0.0000000760115731049     0.0000000756937364691     0.0000000659388215840     0.0000000516548745529     0.0000000364581808986     0.0000000226498303383     0.0000000117377721365     0.0000000045999252644     0.0000000011424512643     -0.0000000000021067131 
    -0.0000000000019146744     0.0000000095451887930     0.0000000156639408915     0.0000000161589464745     0.0000000106240287108     0.0000000001970438962     -0.0000000130318818121     -0.0000000264309750775     -0.0000000369642188181     -0.0000000414508915838     -0.0000000374555606109     -0.0000000248527572168     -0.0000000087779056025     0.0000000071554709384     0.0000000163169537376     0.0000000130804734315     -0.0000000000009539799     -0.0000000130827490300     -0.0000000163202024590     -0.0000000071599489808     0.0000000087723918118     0.0000000248467838882     0.0000000374497495082     0.0000000414456228562     0.0000000369596398037     0.0000000264270202320     0.0000000130283616887     -0.0000000002003522446     -0.0000000106273227536     -0.0000000161623657592     -0.0000000156675466248     -0.0000000095489551675     -0.0000000000019146744 
    -0.0000000000016420052     0.0000000220660435941     0.0000000390080445101     0.0000000473864690282     0.0000000463121488577     0.0000000372402603687     0.0000000231033077644     0.0000000073753814266     -0.0000000066085336357     -0.0000000161294916280     -0.0000000195665234817     -0.0000000169346128502     -0.0000000101750021950     -0.0000000026811467006     0.0000000020672262140     0.0000000026081386660     -0.0000000000008975157     -0.0000000026102171609     -0.0000000020700511039     0.0000000026773941239     0.0000000101704425864     0.0000000169295895965     0.0000000195614700929     0.0000000161247653474     0.0000000066043198330     -0.0000000073790721243     -0.0000000231065849149     -0.0000000372432886573     -0.0000000463150962888     -0.0000000473894686230     -0.0000000390111659857     -0.0000000220692808382     -0.0000000000016420052 
    -0.0000000000013238771     0.0000000366446960501     0.0000000657488866714     0.0000000821961091910     0.0000000845797422520     0.0000000749492940855     0.0000000574967052626     0.0000000370052123972     0.0000000176642729533     0.0000000024232709674     -0.0000000072379911745     -0.0000000112890113179     -0.0000000109250505891     -0.0000000080827001388     -0.0000000047039214908     -0.0000000019830876326     -0.0000000000004348942     0.0000000019819867891     0.0000000047021939394     0.0000000080801320278     0.0000000109216686590     0.0000000112850548901     0.0000000072338079027     -0.0000000024273509082     -0.0000000176680256095     -0.0000000370085486856     -0.0000000574996531971     -0.0000000749519591576     -0.0000000845822616244     -0.0000000821986069273     -0.0000000657514385116     -0.0000000366473149584     -0.0000000000013238771 
    -0.0000000000009993123     0.0000000533367000510     0.0000000958958383001     0.0000001204535046953     0.0000001251861987911     0.0000001132044787021     0.0000000904939549262     0.0000000635554718472     0.0000000377222629713     0.0000000164427088118     0.0000000013017104104     -0.0000000075970275251     -0.0000000111558340579     -0.0000000108136905256     -0.0000000080976688172     -0.0000000042422201412     -0.0000000000000409863     0.0000000042419420088     0.0000000080968502779     0.0000000108121210589     0.0000000111534875106     0.0000000075940557551     -0.0000000013050400124     -0.0000000164461026216     -0.0000000377254798442     -0.0000000635583689552     -0.0000000904964979626     -0.0000001132067231875     -0.0000001251882511108     -0.0000001204554750311     -0.0000000958978028121     -0.0000000533386866713     -0.0000000000009993123 
    -0.0000000000007029794     0.0000000716808013640     0.0000001285715689743     0.0000001609919506942     0.0000001669075736079     0.0000001510325107081     0.0000001216745316974     0.0000000873497584621     0.0000000546149800101     0.0000000274145166754     0.0000000074336665637     -0.0000000052139127415     -0.0000000113800650287     -0.0000000124463568140     -0.0000000099820286552     -0.0000000054456759886     0.0000000000001907075     0.0000000054458977273     0.0000000099818054674     0.0000000124454996370     0.0000000113785220984     0.0000000052117746340     -0.0000000074362016075     -0.0000000274172036822     -0.0000000546175920757     -0.0000000873521364086     -0.0000001216766080651     -0.0000001510343047093     -0.0000001669091606868     -0.0000001609934200632     -0.0000001285729893165     -0.0000000716822087832     -0.0000000000007029794 
    -0.0000000000004567589     0.0000000903196021684     0.0000001613950224487     0.0000002009577794787     0.0000002070044796180     0.0000001862666442082     0.0000001496916657126     0.0000001079004725829     0.0000000685848001127     0.0000000360464179185     0.0000000119644320014     -0.0000000036227174213     -0.0000000116350334941     -0.0000000135637951568     -0.0000000111709231625     -0.0000000061713936859     0.0000000000002751294     0.0000000061718221039     0.0000000111710098853     0.0000000135633880188     0.0000000116340788614     0.0000000036212680504     -0.0000000119662362703     -0.0000000360483906342     -0.0000000685867565568     -0.0000001079022717838     -0.0000001496932351614     -0.0000001862679811227     -0.0000002070056299747     -0.0000002009588060897     -0.0000001613959792481     -0.0000000903205254925     -0.0000000000004567589 
    -0.0000000000002658487     0.0000001068932974560     0.0000001903323061460     0.0000002356968492899     0.0000002411902393499     0.0000002156024599009     0.0000001724026149774     0.0000001240967005783     0.0000000792861889986     0.0000000424670247037     0.0000000152191835210     -0.0000000025459696955     -0.0000000118554517178     -0.0000000143400893446     -0.0000000119578383996     -0.0000000066382378008     0.0000000000002480328     0.0000000066386513004     0.0000000119580197896     0.0000000143399333438     0.0000000118549176602     0.0000000025450874869     -0.0000000152203246075     -0.0000000424683012343     -0.0000000792874747327     -0.0000001240978948737     -0.0000001724036605657     -0.0000002156033453734     -0.0000002411909869577     -0.0000002356974955884     -0.0000001903328865560     -0.0000001068938410592     -0.0000000000002658487 
    -0.0000000000001203405     0.0000001185009708905     0.0000002104851362933     0.0000002596651882025     0.0000002644758181674     0.0000002352716391848     0.0000001873635974100     0.0000001345758038027     0.0000000860939421813     0.0000000464891975156     0.0000000172274524653     -0.0000000018955612611     -0.0000000119962108031     -0.0000000148086431275     -0.0000000124248331916     -0.0000000069123822874     0.0000000000001443621     0.0000000069126292188     0.0000000124249626079     0.0000000148086015426     0.0000000119959770092     0.0000000018951491675     -0.0000000172279993638     -0.0000000464898184117     -0.0000000860945741695     -0.0000001345763956659     -0.0000001873641183187     -0.0000002352720801717     -0.0000002644761868118     -0.0000002596655001328     -0.0000002104854085070     -0.0000001185012194763     -0.0000000000001203405 
    0.0000000000000000000     0.0000001226918277249     0.0000002177409854199     0.0000002682550335867     0.0000002727679701953     0.0000002422212818917     0.0000001926038664076     0.0000001382144187626     0.0000000884393915406     0.0000000478661449884     0.0000000179115914439     -0.0000000016747471186     -0.0000000120435195377     -0.0000000149661942479     -0.0000000125814847424     -0.0000000070042237522     -0.0000000000000000000     0.0000000070042237522     0.0000000125814847424     0.0000000149661942479     0.0000000120435195377     0.0000000016747471186     -0.0000000179115914439     -0.0000000478661449884     -0.0000000884393915406     -0.0000001382144187626     -0.0000001926038664076     -0.0000002422212818917     -0.0000002727679701953     -0.0000002682550335867     -0.0000002177409854199     -0.0000001226918277249     0.0000000000000000000 
    0.0000000000000000000     0.0000002037903969299     0.0000003465633974184     0.0000004012586227400     0.0000003864437252031     0.0000003250872124171     0.0000002406446918945     0.0000001569947000477     0.0000000873361045995     0.0000000357299991721     0.0000000012358815194     -0.0000000187657107157     -0.0000000271331655310     -0.0000000267505170943     -0.0000000204972368671     -0.0000000109388070109     -0.0000000000000000000     0.0000000109388070109     0.0000000204972368671     0.0000000267505170943     0.0000000271331655310     0.0000000187657107157     -0.0000000012358815194     -0.0000000357299991721     -0.0000000873361045995     -0.0000001569947000477     -0.0000002406446918945     -0.0000003250872124171     -0.0000003864437252031     -0.0000004012586227400     -0.0000003465633974184     -0.0000002037903969299     0.0000000000000000000 
    -0.0000000000000308611     0.0000001943287126228     0.0000003310935543536     0.0000003850804277174     0.0000003732668892830     0.0000003145606468330     0.0000002332756464497     0.0000001524132847271     0.0000000848283605341     0.0000000346082023246     0.0000000009752559211     -0.0000000185371720504     -0.0000000266832018982     -0.0000000262726755111     -0.0000000201204819774     -0.0000000107355087710     -0.0000000000001977393     0.0000000107351525499     0.0000000201202369128     0.0000000262725939911     0.0000000266833060702     0.0000000185374488620     -0.0000000009748508932     -0.0000000346077328022     -0.0000000848278935528     -0.0000001524128761846     -0.0000002332753320686     -0.0000003145604399502     -0.0000003732667845119     -0.0000003850804048554     -0.0000003310935821383     -0.0000001943287664632     -0.0000000000000308611 
    -0.0000000000000383162     0.0000001690467533409     0.0000002899778200012     0.0000003425927742847     0.0000003365736725394     0.0000002850837066571     0.0000002125023057632     0.0000001394038643555     0.0000000776587288167     0.0000000313898990498     0.0000000002443090090     -0.0000000178373202036     -0.0000000253279238281     -0.0000000248326168355     -0.0000000189822033399     -0.0000000101197903486     -0.0000000000003505250     0.0000000101191664140     0.0000000189817975514     0.0000000248325313104     0.0000000253282004164     0.0000000178379306706     -0.0000000002434552903     -0.0000000313889308696     -0.0000000776577806371     -0.0000001394030461890     -0.0000002125016836774     -0.0000002850832981263     -0.0000003365734560262     -0.0000003425927064406     -0.0000002899778419393     -0.0000001690468178381     -0.0000000000000383162 
    0.0000000000000094039     0.0000001359735451716     0.0000002368855340545     0.0000002866225779974     0.0000002836982602190     0.0000002421144066727     0.0000001817953634072     0.0000001198728993562     0.0000000667302128742     0.0000000264346534104     -0.0000000008438714298     -0.0000000166354235758     -0.0000000230412354725     -0.0000000223855360820     -0.0000000170294959065     -0.0000000090556093918     -0.0000000000004235327     0.0000000090548750746     0.0000000170290794610     0.0000000223855830229     0.0000000230418002420     0.0000000166364566191     0.0000000008452327924     -0.0000000264331564868     -0.0000000667287768597     -0.0000001198716791116     -0.0000001817944428402     -0.0000002421137928743     -0.0000002836979017643     -0.0000002866223978196     -0.0000002368854590510     -0.0000001359735152306     0.0000000000000094039 
    0.0000000000001512183     0.0000001043419542422     0.0000001841007857616     0.0000002242529115474     0.0000002236324789323     0.0000001924067580446     0.0000001454748417039     0.0000000961786050230     0.0000000531176062376     0.0000000201208115816     -0.0000000022047122277     -0.0000000149012273563     -0.0000000197306506327     -0.0000000187587716195     -0.0000000140666357337     -0.0000000074129399932     -0.0000000000003888821     0.0000000074123079897     0.0000000140664115949     0.0000000187591328913     0.0000000197316499422     0.0000000149027814689     0.0000000022066278328     -0.0000000201187834693     -0.0000000531157061803     -0.0000000961770101382     -0.0000001454736327178     -0.0000001924059163632     -0.0000002236319149420     -0.0000002242525124643     -0.0000001841004594701     -0.0000001043416489473     0.0000000000001512183 
    0.0000000000003917051     0.0000000755284083957     0.0000001336828165693     0.0000001636271547475     0.0000001640969517291     0.0000001418589975076     0.0000001073521068660     0.0000000703705927829     0.0000000376710334910     0.0000000126473015364     -0.0000000038575230234     -0.0000000125741001486     -0.0000000151059862507     -0.0000000134513073846     -0.0000000095508992199     -0.0000000048386114735     -0.0000000000002173550     0.0000000048383521139     0.0000000095511244131     0.0000000134522098759     0.0000000151075949986     0.0000000125762798302     0.0000000038600226261     -0.0000000126447719666     -0.0000000376687275753     -0.0000000703686742801     -0.0000001073506252626     -0.0000001418578947818     -0.0000001640960996685     -0.0000001636264120279     -0.0000001336820812893     -0.0000000755276419734     0.0000000000003917051 
    0.0000000000007033350     0.0000000506666171530     0.0000000897190698608     0.0000001098078238431     0.0000001098705536280     0.0000000942328145843     0.0000000698811684392     0.0000000436852413646     0.0000000207338628153     0.0000000038941845341     -0.0000000059390430455     -0.0000000094313393311     -0.0000000083959603852     -0.0000000052463245171     -0.0000000022115034617     -0.0000000005181333041     0.0000000000001128689     0.0000000005185586953     0.0000000022124712141     0.0000000052480222155     0.0000000083983686472     0.0000000094342511692     0.0000000059421468415     -0.0000000038912002962     -0.0000000207312283156     -0.0000000436830669692     -0.0000000698794429693     -0.0000000942314290969     -0.0000001098693455843     -0.0000001098066351632     -0.0000000897178006779     -0.0000000506652516708     0.0000000000007033350 
    0.0000000000010421504     0.0000000304714920891     0.0000000535313241004     0.0000000645005338473     0.0000000627243036500     0.0000000510181017720     0.0000000339947974328     0.0000000163869149823     0.0000000020167333575     -0.0000000066310609438     -0.0000000086245705783     -0.0000000048133373133     0.0000000021434081149     0.0000000084265551034     0.0000000105640002035     0.0000000072038099402     0.0000000000005818822     -0.0000000072024299048     -0.0000000105620443034     -0.0000000084238597445     -0.0000000021400593100     0.0000000048170494373     0.0000000086282758196     0.0000000066344441808     -0.0000000020138496005     -0.0000000163845571293     -0.0000000339928720105     -0.0000000510164415196     -0.0000000627227169531     -0.0000000644988571891     -0.0000000535294700448     -0.0000000304694736974     0.0000000000010421504 
    0.0000000000013541641     0.0000000145461697635     0.0000000245365614857     0.0000000272067435330     0.0000000223842199249     0.0000000120802091883     -0.0000000005469413069     -0.0000000120857456456     -0.0000000193425328471     -0.0000000197087729505     -0.0000000119113006531     0.0000000028121408157     0.0000000199007589171     0.0000000325545053846     0.0000000346648623529     0.0000000225671504493     0.0000000000009685169     -0.0000000225649546219     -0.0000000346619942145     -0.0000000325508302382     -0.0000000198964935800     -0.0000000028076837664     0.0000000119155319748     0.0000000197124717752     0.0000000193455848888     0.0000000120882164258     0.0000000005490108582     -0.0000000120783160648     -0.0000000223822883661     -0.0000000272046130726     -0.0000000245341639409     -0.0000000145435483531     0.0000000000013541641 
    0.0000000000015915170     0.0000000020679230141     0.0000000014033926869     -0.0000000034736499125     -0.0000000123069913273     -0.0000000234669150953     -0.0000000345689150926     -0.0000000427258948439     -0.0000000444719950912     -0.0000000360989041483     -0.0000000152457300866     0.0000000161358292818     0.0000000520155262283     0.0000000814617189791     0.0000000858359240530     0.0000000554420597683     0.0000000000009115459     -0.0000000554399322327     -0.0000000858329997413     -0.0000000814578153007     -0.0000000520108506420     -0.0000000161309098410     0.0000000152502790960     0.0000000361027695992     0.0000000444751137238     0.0000000427284040051     0.0000000345710630100     0.0000000234689711668     0.0000000123091849291     0.0000000034761322123     -0.0000000014005755366     -0.0000000020648407117     0.0000000000015915170 
    0.0000000000017223779     -0.0000000077724685538     -0.0000000171916840249     -0.0000000289570944123     -0.0000000425419140148     -0.0000000565266746520     -0.0000000688434859646     -0.0000000763600295463     -0.0000000741749832025     -0.0000000560004344892     -0.0000000183609684001     0.0000000395668815354     0.0000001146940183097     0.0000001746571517675     0.0000001802219004378     0.0000001148921803135     0.0000000000003776006     -0.0000001148910894824     -0.0000001802199211939     -0.0000001746540434053     -0.0000001146899304876     -0.0000000395622899377     0.0000000183654332043     0.0000000560042285191     0.0000000741780239207     0.0000000763624840134     0.0000000688456324665     0.0000000565288016802     0.0000000425442517788     0.0000000289597790727     0.0000000171947402047     0.0000000077758076473     0.0000000000017223779 
    0.0000000000017304361     -0.0000000155886380049     -0.0000000322425348764     -0.0000000502744197226     -0.0000000691042480646     -0.0000000875250962626     -0.0000001035024008101     -0.0000001129397613030     -0.0000001081721125567     -0.0000000796494819483     -0.0000000228106859695     0.0000000848242620038     0.0000002216562999351     0.0000003240670247712     0.0000003264898431721     0.0000002054362407056     -0.0000000000004669600     -0.0000002054368350830     -0.0000003264895266341     -0.0000003240655061062     -0.0000002216536362415     -0.0000000848208127509     0.0000000228143871526     0.0000000796528856552     0.0000001081748884096     0.0000001129420410312     0.0000001035044461902     0.0000000875271818355     0.0000000691065870827     0.0000000502771274337     0.0000000322456171063     0.0000000155919969887     0.0000000000017304361 
    0.0000000000016090152     -0.0000000217730945177     -0.0000000443604375152     -0.0000000679791986856     -0.0000000922099560411     -0.0000001161393293191     -0.0000001376062035602     -0.0000001509556120097     -0.0000001445231373172     -0.0000001124549076954     -0.0000000205092433929     0.0000001577221884498     0.0000003734286862207     0.0000005257063096100     0.0000005188693181308     0.0000003229846066352     -0.0000000000012979557     -0.0000003229868946775     -0.0000005188707684251     -0.0000005257066109287     -0.0000003734277960503     -0.0000001577203121427     0.0000000205117193663     0.0000001124575176964     0.0000001445254569231     0.0000001509575820964     0.0000001376080303995     0.0000001161412423953     0.0000000922121339888     0.0000000679817309023     0.0000000443633155083     0.0000000217762218661     0.0000000000016090152 
    0.0000000000013579512     -0.0000000265347283511     -0.0000000538317047322     -0.0000000821976152789     -0.0000001115213222845     -0.0000001412539892674     -0.0000001690332391019     -0.0000001873001166355     -0.0000001826602898759     -0.0000001468497999298     -0.0000000076688896180     0.0000002514752614428     0.0000005523206772160     0.0000007550654745523     0.0000007336597675527     0.0000004529777475315     -0.0000000000017697904     -0.0000004529810430446     -0.0000007336623894308     -0.0000007550671370306     -0.0000005523212667528     -0.0000002514748378626     0.0000000076701011163     0.0000001468514510820     0.0000001826620011611     0.0000001873016589057     0.0000001690347274901     0.0000001412555892114     0.0000001115231659833     0.0000000821997644777     0.0000000538341428271     0.0000000265373707168     0.0000000000013579512 
    0.0000000000009866898     -0.0000000299505420347     -0.0000000607070486825     -0.0000000927427984720     -0.0000001262938982425     -0.0000001611748359696     -0.0000001948124369605     -0.0000002177828926775     -0.0000002208149784069     -0.0000001750048545955     0.0000000120730179775     0.0000003469018516498     0.0000007244546722552     0.0000009704769572853     0.0000009327721394572     0.0000005726603695283     -0.0000000000016700715     -0.0000005726635469582     -0.0000009327748618013     -0.0000009704790086880     -0.0000007244559238857     -0.0000003469022738698     -0.0000000120727062960     0.0000001750056800862     0.0000002208160328641     0.0000002177839352588     0.0000001948134856265     0.0000001611759902891     0.0000001262952414240     0.0000000927443670013     0.0000000607088253002     0.0000000299524636251     0.0000000000009866898 
    0.0000000000005200430     -0.0000000320193629173     -0.0000000649050524161     -0.0000000992768099981     -0.0000001356395187939     -0.0000001740759322646     -0.0000002118521539474     -0.0000002381707000120     -0.0000002484361983312     -0.0000001927650086209     0.0000000299326511450     0.0000004186775658271     0.0000008496381934572     0.0000011247712833060     0.0000010741981231567     0.0000006572885689505     -0.0000000000010070510     -0.0000006572905036947     -0.0000010741998336781     -0.0000011247726545158     -0.0000008496391415655     -0.0000004186780486268     -0.0000000299326933286     0.0000001927653042787     0.0000002484366794160     0.0000002381712203520     0.0000002118526946256     0.0000001740765376758     0.0000001356402278670     0.0000000992776389674     0.0000000649059904523     0.0000000320203762390     0.0000000000005200430 
    0.0000000000000000000     -0.0000000327139622138     -0.0000000663199807110     -0.0000001014953187791     -0.0000001388455982101     -0.0000001785522771054     -0.0000002178209939527     -0.0000002453473549484     -0.0000002584510131448     -0.0000001987524714233     0.0000000371045210618     0.0000004453895852687     0.0000008954935262626     0.0000011808754838185     0.0000011254106798663     0.0000006878656470495     -0.0000000000000000000     -0.0000006878656470495     -0.0000011254106798663     -0.0000011808754838185     -0.0000008954935262626     -0.0000004453895852687     -0.0000000371045210618     0.0000001987524714233     0.0000002584510131448     0.0000002453473549484     0.0000002178209939527     0.0000001785522771054     0.0000001388455982101     0.0000001014953187791     0.0000000663199807110     0.0000000327139622138     0.0000000000000000000 
    -0.0000000000005200430     -0.0000000320203762390     -0.0000000649059904523     -0.0000000992776389674     -0.0000001356402278670     -0.0000001740765376758     -0.0000002118526946256     -0.0000002381712203520     -0.0000002484366794160     -0.0000001927653042787     0.0000000299326933286     0.0000004186780486268     0.0000008496391415655     0.0000011247726545158     0.0000010741998336781     0.0000006572905036947     0.0000000000010070510     -0.0000006572885689505     -0.0000010741981231567     -0.0000011247712833060     -0.0000008496381934572     -0.0000004186775658271     -0.0000000299326511450     0.0000001927650086209     0.0000002484361983312     0.0000002381707000120     0.0000002118521539474     0.0000001740759322646     0.0000001356395187939     0.0000000992768099981     0.0000000649050524161     0.0000000320193629173     -0.0000000000005200430 
    -0.0000000000009866898     -0.0000000299524636251     -0.0000000607088253002     -0.0000000927443670013     -0.0000001262952414240     -0.0000001611759902891     -0.0000001948134856265     -0.0000002177839352588     -0.0000002208160328641     -0.0000001750056800862     0.0000000120727062960     0.0000003469022738698     0.0000007244559238857     0.0000009704790086880     0.0000009327748618013     0.0000005726635469582     0.0000000000016700715     -0.0000005726603695283     -0.0000009327721394572     -0.0000009704769572853     -0.0000007244546722552     -0.0000003469018516498     -0.0000000120730179775     0.0000001750048545955     0.0000002208149784069     0.0000002177828926775     0.0000001948124369605     0.0000001611748359696     0.0000001262938982425     0.0000000927427984720     0.0000000607070486825     0.0000000299505420347     -0.0000000000009866898 
    -0.0000000000013579512     -0.0000000265373707168     -0.0000000538341428271     -0.0000000821997644777     -0.0000001115231659833     -0.0000001412555892114     -0.0000001690347274901     -0.0000001873016589057     -0.0000001826620011611     -0.0000001468514510820     -0.0000000076701011163     0.0000002514748378626     0.0000005523212667528     0.0000007550671370306     0.0000007336623894308     0.0000004529810430446     0.0000000000017697904     -0.0000004529777475315     -0.0000007336597675527     -0.0000007550654745523     -0.0000005523206772160     -0.0000002514752614428     0.0000000076688896180     0.0000001468497999298     0.0000001826602898759     0.0000001873001166355     0.0000001690332391019     0.0000001412539892674     0.0000001115213222845     0.0000000821976152789     0.0000000538317047322     0.0000000265347283511     -0.0000000000013579512 
    -0.0000000000016090152     -0.0000000217762218661     -0.0000000443633155083     -0.0000000679817309023     -0.0000000922121339888     -0.0000001161412423953     -0.0000001376080303995     -0.0000001509575820964     -0.0000001445254569231     -0.0000001124575176964     -0.0000000205117193663     0.0000001577203121427     0.0000003734277960503     0.0000005257066109287     0.0000005188707684251     0.0000003229868946775     0.0000000000012979557     -0.0000003229846066352     -0.0000005188693181308     -0.0000005257063096100     -0.0000003734286862207     -0.0000001577221884498     0.0000000205092433929     0.0000001124549076954     0.0000001445231373172     0.0000001509556120097     0.0000001376062035602     0.0000001161393293191     0.0000000922099560411     0.0000000679791986856     0.0000000443604375152     0.0000000217730945177     -0.0000000000016090152 
    -0.0000000000017304361     -0.0000000155919969887     -0.0000000322456171063     -0.0000000502771274337     -0.0000000691065870827     -0.0000000875271818355     -0.0000001035044461902     -0.0000001129420410312     -0.0000001081748884096     -0.0000000796528856552     -0.0000000228143871526     0.0000000848208127509     0.0000002216536362415     0.0000003240655061062     0.0000003264895266341     0.0000002054368350830     0.0000000000004669600     -0.0000002054362407056     -0.0000003264898431721     -0.0000003240670247712     -0.0000002216562999351     -0.0000000848242620038     0.0000000228106859695     0.0000000796494819483     0.0000001081721125567     0.0000001129397613030     0.0000001035024008101     0.0000000875250962626     0.0000000691042480646     0.0000000502744197226     0.0000000322425348764     0.0000000155886380049     -0.0000000000017304361 
    -0.0000000000017223779     -0.0000000077758076473     -0.0000000171947402047     -0.0000000289597790727     -0.0000000425442517788     -0.0000000565288016802     -0.0000000688456324665     -0.0000000763624840134     -0.0000000741780239207     -0.0000000560042285191     -0.0000000183654332043     0.0000000395622899377     0.0000001146899304876     0.0000001746540434053     0.0000001802199211939     0.0000001148910894824     -0.0000000000003776006     -0.0000001148921803135     -0.0000001802219004378     -0.0000001746571517675     -0.0000001146940183097     -0.0000000395668815354     0.0000000183609684001     0.0000000560004344892     0.0000000741749832025     0.0000000763600295463     0.0000000688434859646     0.0000000565266746520     0.0000000425419140148     0.0000000289570944123     0.0000000171916840249     0.0000000077724685538     -0.0000000000017223779 
    -0.0000000000015915170     0.0000000020648407117     0.0000000014005755366     -0.0000000034761322123     -0.0000000123091849291     -0.0000000234689711668     -0.0000000345710630100     -0.0000000427284040051     -0.0000000444751137238     -0.0000000361027695992     -0.0000000152502790960     0.0000000161309098410     0.0000000520108506420     0.0000000814578153007     0.0000000858329997413     0.0000000554399322327     -0.0000000000009115459     -0.0000000554420597683     -0.0000000858359240530     -0.0000000814617189791     -0.0000000520155262283     -0.0000000161358292818     0.0000000152457300866     0.0000000360989041483     0.0000000444719950912     0.0000000427258948439     0.0000000345689150926     0.0000000234669150953     0.0000000123069913273     0.0000000034736499125     -0.0000000014033926869     -0.0000000020679230141     -0.0000000000015915170 
    -0.0000000000013541641     0.0000000145435483531     0.0000000245341639409     0.0000000272046130726     0.0000000223822883661     0.0000000120783160648     -0.0000000005490108582     -0.0000000120882164258     -0.0000000193455848888     -0.0000000197124717752     -0.0000000119155319748     0.0000000028076837664     0.0000000198964935800     0.0000000325508302382     0.0000000346619942145     0.0000000225649546219     -0.0000000000009685169     -0.0000000225671504493     -0.0000000346648623529     -0.0000000325545053846     -0.0000000199007589171     -0.0000000028121408157     0.0000000119113006531     0.0000000197087729505     0.0000000193425328471     0.0000000120857456456     0.0000000005469413069     -0.0000000120802091883     -0.0000000223842199249     -0.0000000272067435330     -0.0000000245365614857     -0.0000000145461697635     -0.0000000000013541641 
    -0.0000000000010421504     0.0000000304694736974     0.0000000535294700448     0.0000000644988571891     0.0000000627227169531     0.0000000510164415196     0.0000000339928720105     0.0000000163845571293     0.0000000020138496005     -0.0000000066344441808     -0.0000000086282758196     -0.0000000048170494373     0.0000000021400593100     0.0000000084238597445     0.0000000105620443034     0.0000000072024299048     -0.0000000000005818822     -0.0000000072038099402     -0.0000000105640002035     -0.0000000084265551034     -0.0000000021434081149     0.0000000048133373133     0.0000000086245705783     0.0000000066310609438     -0.0000000020167333575     -0.0000000163869149823     -0.0000000339947974328     -0.0000000510181017720     -0.0000000627243036500     -0.0000000645005338473     -0.0000000535313241004     -0.0000000304714920891     -0.0000000000010421504 
    -0.0000000000007033350     0.0000000506652516708     0.0000000897178006779     0.0000001098066351632     0.0000001098693455843     0.0000000942314290969     0.0000000698794429693     0.0000000436830669692     0.0000000207312283156     0.0000000038912002962     -0.0000000059421468415     -0.0000000094342511692     -0.0000000083983686472     -0.0000000052480222155     -0.0000000022124712141     -0.0000000005185586953     -0.0000000000001128689     0.0000000005181333041     0.0000000022115034617     0.0000000052463245171     0.0000000083959603852     0.0000000094313393311     0.0000000059390430455     -0.0000000038941845341     -0.0000000207338628153     -0.0000000436852413646     -0.0000000698811684392     -0.0000000942328145843     -0.0000001098705536280     -0.0000001098078238431     -0.0000000897190698608     -0.0000000506666171530     -0.0000000000007033350 
    -0.0000000000003917051     0.0000000755276419734     0.0000001336820812893     0.0000001636264120279     0.0000001640960996685     0.0000001418578947818     0.0000001073506252626     0.0000000703686742801     0.0000000376687275753     0.0000000126447719666     -0.0000000038600226261     -0.0000000125762798302     -0.0000000151075949986     -0.0000000134522098759     -0.0000000095511244131     -0.0000000048383521139     0.0000000000002173550     0.0000000048386114735     0.0000000095508992199     0.0000000134513073846     0.0000000151059862507     0.0000000125741001486     0.0000000038575230234     -0.0000000126473015364     -0.0000000376710334910     -0.0000000703705927829     -0.0000001073521068660     -0.0000001418589975076     -0.0000001640969517291     -0.0000001636271547475     -0.0000001336828165693     -0.0000000755284083957     -0.0000000000003917051 
    -0.0000000000001512183     0.0000001043416489473     0.0000001841004594701     0.0000002242525124643     0.0000002236319149420     0.0000001924059163632     0.0000001454736327178     0.0000000961770101382     0.0000000531157061803     0.0000000201187834693     -0.0000000022066278328     -0.0000000149027814689     -0.0000000197316499422     -0.0000000187591328913     -0.0000000140664115949     -0.0000000074123079897     0.0000000000003888821     0.0000000074129399932     0.0000000140666357337     0.0000000187587716195     0.0000000197306506327     0.0000000149012273563     0.0000000022047122277     -0.0000000201208115816     -0.0000000531176062376     -0.0000000961786050230     -0.0000001454748417039     -0.0000001924067580446     -0.0000002236324789323     -0.0000002242529115474     -0.0000001841007857616     -0.0000001043419542422     -0.0000000000001512183 
    -0.0000000000000094039     0.0000001359735152306     0.0000002368854590510     0.0000002866223978196     0.0000002836979017643     0.0000002421137928743     0.0000001817944428402     0.0000001198716791116     0.0000000667287768597     0.0000000264331564868     -0.0000000008452327924     -0.0000000166364566191     -0.0000000230418002420     -0.0000000223855830229     -0.0000000170290794610     -0.0000000090548750746     0.0000000000004235327     0.0000000090556093918     0.0000000170294959065     0.0000000223855360820     0.0000000230412354725     0.0000000166354235758     0.0000000008438714298     -0.0000000264346534104     -0.0000000667302128742     -0.0000001198728993562     -0.0000001817953634072     -0.0000002421144066727     -0.0000002836982602190     -0.0000002866225779974     -0.0000002368855340545     -0.0000001359735451716     -0.0000000000000094039 
    0.0000000000000383162     0.0000001690468178381     0.0000002899778419393     0.0000003425927064406     0.0000003365734560262     0.0000002850832981263     0.0000002125016836774     0.0000001394030461890     0.0000000776577806371     0.0000000313889308696     0.0000000002434552903     -0.0000000178379306706     -0.0000000253282004164     -0.0000000248325313104     -0.0000000189817975514     -0.0000000101191664140     0.0000000000003505250     0.0000000101197903486     0.0000000189822033399     0.0000000248326168355     0.0000000253279238281     0.0000000178373202036     -0.0000000002443090090     -0.0000000313898990498     -0.0000000776587288167     -0.0000001394038643555     -0.0000002125023057632     -0.0000002850837066571     -0.0000003365736725394     -0.0000003425927742847     -0.0000002899778200012     -0.0000001690467533409     0.0000000000000383162 
    0.0000000000000308611     0.0000001943287664632     0.0000003310935821383     0.0000003850804048554     0.0000003732667845119     0.0000003145604399502     0.0000002332753320686     0.0000001524128761846     0.0000000848278935528     0.0000000346077328022     0.0000000009748508932     -0.0000000185374488620     -0.0000000266833060702     -0.0000000262725939911     -0.0000000201202369128     -0.0000000107351525499     0.0000000000001977393     0.0000000107355087710     0.0000000201204819774     0.0000000262726755111     0.0000000266832018982     0.0000000185371720504     -0.0000000009752559211     -0.0000000346082023246     -0.0000000848283605341     -0.0000001524132847271     -0.0000002332756464497     -0.0000003145606468330     -0.0000003732668892830     -0.0000003850804277174     -0.0000003310935543536     -0.0000001943287126228     0.0000000000000308611 
    0.0000000000000000000     0.0000002037903969299     0.0000003465633974184     0.0000004012586227400     0.0000003864437252031     0.0000003250872124171     0.0000002406446918945     0.0000001569947000477     0.0000000873361045995     0.0000000357299991721     0.0000000012358815194     -0.0000000187657107157     -0.0000000271331655310     -0.0000000267505170943     -0.0000000204972368671     -0.0000000109388070109     -0.0000000000000000000     0.0000000109388070109     0.0000000204972368671     0.0000000267505170943     0.0000000271331655310     0.0000000187657107157     -0.0000000012358815194     -0.0000000357299991721     -0.0000000873361045995     -0.0000001569947000477     -0.0000002406446918945     -0.0000003250872124171     -0.0000003864437252031     -0.0000004012586227400     -0.0000003465633974184     -0.0000002037903969299     0.0000000000000000000 
    0.0000000000000000000     0.0000003597626249491     0.0000006037301691080     0.0000006727241863982     0.0000005877331526016     0.0000004283769754526     0.0000002801943415380     0.0000001587474658860     0.0000000669974761501     0.0000000063928081765     -0.0000000288207454258     -0.0000000453462648305     -0.0000000485333018107     -0.0000000425073858122     -0.0000000307135514573     -0.0000000159240447770     -0.0000000000000000000     0.0000000159240447770     0.0000000307135514573     0.0000000425073858122     0.0000000485333018107     0.0000000453462648305     0.0000000288207454258     -0.0000000063928081765     -0.0000000669974761501     -0.0000001587474658860     -0.0000002801943415380     -0.0000004283769754526     -0.0000005877331526016     -0.0000006727241863982     -0.0000006037301691080     -0.0000003597626249491     0.0000000000000000000 
    -0.0000000000000893574     0.0000003424161792877     0.0000005744831399183     0.0000006400901880073     0.0000005597998545788     0.0000004099277852968     0.0000002704954406528     0.0000001534762150846     0.0000000647651430931     0.0000000059552521014     -0.0000000283267651763     -0.0000000444483438004     -0.0000000475482621374     -0.0000000416341228117     -0.0000000300762861188     -0.0000000155913529213     -0.0000000000002647874     0.0000000155908601658     0.0000000300758978960     0.0000000416338890803     0.0000000475482045422     0.0000000444484498042     0.0000000283269904662     -0.0000000059549724798     -0.0000000647648786738     -0.0000001534760248540     -0.0000002704953634275     -0.0000004099278273313     -0.0000005597999785143     -0.0000006400903554960     -0.0000005744833216935     -0.0000003424163602246     -0.0000000000000893574 
    -0.0000000000001922493     0.0000002950405922853     0.0000004947663467137     0.0000005515046882767     0.0000004845592646283     0.0000003609930515901     0.0000002434558240169     0.0000001387180750999     0.0000000585059154330     0.0000000047728278914     -0.0000000268324450127     -0.0000000417681102272     -0.0000000445992659381     -0.0000000390082789190     -0.0000000281526508452     -0.0000000145842274975     -0.0000000000004802909     0.0000000145833388902     0.0000000281519662471     0.0000000390078948460     0.0000000445992226396     0.0000000417683803117     0.0000000268329381467     -0.0000000047722432117     -0.0000000585053796684     -0.0000001387177057011     -0.0000002434556933007     -0.0000003609931733365     -0.0000004845595610490     -0.0000005515050698789     -0.0000004947667483413     -0.0000002950409842785     -0.0000000000001922493 
    -0.0000000000002942797     0.0000002298684755025     0.0000003856058737013     0.0000004313216807337     0.0000003842684431321     0.0000002979418517414     0.0000002044137412199     0.0000001171993950004     0.0000000493306576163     0.0000000031557904974     -0.0000000243246904317     -0.0000000373427038262     -0.0000000396844058904     -0.0000000345813625392     -0.0000000248766937304     -0.0000000128569991558     -0.0000000000006117170     0.0000000128558800697     0.0000000248758691787     0.0000000345809682972     0.0000000396844933747     0.0000000373432252164     0.0000000243255072168     -0.0000000031548749482     -0.0000000493298502773     -0.0000001171988641573     -0.0000002044135804383     -0.0000002979420679733     -0.0000003842689376209     -0.0000004313222987127     -0.0000003856065067950     -0.0000002298690805069     -0.0000000000002942797 
    -0.0000000000003435051     0.0000001622603186431     0.0000002733281244842     0.0000003098345125845     0.0000002862241543189     0.0000002311449015646     0.0000001599608178308     0.0000000922608198882     0.0000000385544938768     0.0000000014233210802     -0.0000000208237813680     -0.0000000311971385510     -0.0000000327121122459     -0.0000000281539899674     -0.0000000200235124038     -0.0000000102622806195     -0.0000000000006374513     0.0000000102611388982     0.0000000200227435369     0.0000000281537570564     0.0000000327124645368     0.0000000311979980329     0.0000000208249602913     -0.0000000014220748943     -0.0000000385534359883     -0.0000000922601479391     -0.0000001599606262047     -0.0000002311451677912     -0.0000002862247645757     -0.0000003098352778530     -0.0000002733288919117     -0.0000001622610333273     -0.0000000000003435051 
    -0.0000000000002673504     0.0000001056101340570     0.0000001807091625551     0.0000002127199850057     0.0000002043007208575     0.0000001663362874976     0.0000001158001930213     0.0000000667699883318     0.0000000272489312455     -0.0000000002207079210     -0.0000000163524937922     -0.0000000232212072475     -0.0000000233087244322     -0.0000000191457025979     -0.0000000129973626964     -0.0000000064227906100     -0.0000000000005373743     0.0000000064218730593     0.0000000129968795657     0.0000000191458275399     0.0000000233094855823     0.0000000232224830959     0.0000000163540483419     0.0000000002222524117     -0.0000000272476683939     -0.0000000667691984951     -0.0000001157999440361     -0.0000001663365148286     -0.0000002043012638550     -0.0000002127206586310     -0.0000001807098176849     -0.0000001056107086068     -0.0000000000002673504 
    -0.0000000000000112253     0.0000000670593419641     0.0000001168814212175     0.0000001392551798856     0.0000001340408648880     0.0000001091236262973     0.0000000754503530354     0.0000000424756985180     0.0000000160041819023     -0.0000000017003181346     -0.0000000108102695839     -0.0000000129268155238     -0.0000000104717061902     -0.0000000061917947040     -0.0000000024649185667     -0.0000000005105161844     -0.0000000000002915256     0.0000000005101069989     0.0000000024649815118     0.0000000061924938446     0.0000000104730277618     0.0000000129285812721     0.0000000108121989358     0.0000000017021102872     -0.0000000160027746856     -0.0000000424748194149     -0.0000000754500137623     -0.0000001091237111148     -0.0000001340411744345     -0.0000001392555084490     -0.0000001168816355314     -0.0000000670594217954     -0.0000000000000112253 
    0.0000000000003520332     0.0000000396940997092     0.0000000689491903227     0.0000000815607752561     0.0000000774141825221     0.0000000613161812361     0.0000000400971083758     0.0000000199200664168     0.0000000049131876776     -0.0000000029953756451     -0.0000000037827614991     0.0000000008928273328     0.0000000079214130715     0.0000000134322077134     0.0000000141702005557     0.0000000090700879371     0.0000000000000982369     -0.0000000090697114980     -0.0000000141693457094     -0.0000000134307395616     -0.0000000079194029270     -0.0000000008905170085     0.0000000037850543019     0.0000000029973616868     -0.0000000049116973793     -0.0000000199191314389     -0.0000000400966603961     -0.0000000613160478928     -0.0000000774141369822     -0.0000000815606097686     -0.0000000689487903889     -0.0000000396934826594     0.0000000000003520332 
    0.0000000000007240749     0.0000000197703292405     0.0000000335760454491     0.0000000379698831937     0.0000000331133340507     0.0000000220909545202     0.0000000092563806204     -0.0000000012535145705     -0.0000000062937742885     -0.0000000040295240908     0.0000000056566042417     0.0000000205152047359     0.0000000356258469116     0.0000000444097327852     0.0000000413081190383     0.0000000250049352319     0.0000000000005759538     -0.0000000250036081261     -0.0000000413063411061     -0.0000000444074117461     -0.0000000356231148101     -0.0000000205123609305     -0.0000000056539908319     0.0000000040316464398     0.0000000062952939973     0.0000000012544720801     -0.0000000092558275533     -0.0000000220905780380     -0.0000000331128909309     -0.0000000379691790842     -0.0000000335749963605     -0.0000000197689924712     0.0000000000007240749 
    0.0000000000010337037     0.0000000055180263922     0.0000000078218868683     0.0000000052621907162     -0.0000000016095743262     -0.0000000104988384888     -0.0000000183066442987     -0.0000000218191950137     -0.0000000180170774755     -0.0000000045408632262     0.0000000190620648688     0.0000000494279174097     0.0000000781863922955     0.0000000956936998970     0.0000000905296184116     0.0000000557828700445     0.0000000000008792873     -0.0000000557809176249     -0.0000000905271742170     -0.0000000956907032288     -0.0000000781830767950     -0.0000000494246743055     -0.0000000190592415230     0.0000000045430431807     0.0000000180185771554     0.0000000218201457183     0.0000000183072821369     0.0000000104994354695     0.0000000016103784853     -0.0000000052610088552     -0.0000000078202789676     -0.0000000055160849972     0.0000000000010337037 
    0.0000000000012346840     -0.0000000047650500139     -0.0000000111499398473     -0.0000000196875978230     -0.0000000294431456096     -0.0000000383682699585     -0.0000000437864501583     -0.0000000424635285475     -0.0000000304922123205     -0.0000000039855457604     0.0000000384463905562     0.0000000924320902783     0.0000001512997615875     0.0000001917196506133     0.0000001830090141199     0.0000001127780836908     0.0000000000008178396     -0.0000001127762426990     -0.0000001830066471191     -0.0000001917166732073     -0.0000001512963806882     -0.0000000924287432989     -0.0000000384435559068     0.0000000039876662228     0.0000000304936359951     0.0000000424644454994     0.0000000437871439386     0.0000000383690341650     0.0000000294442198270     0.0000000196891232422     0.0000000111519311255     0.0000000047673901036     0.0000000000012346840 
    0.0000000000013098755     -0.0000000123499272797     -0.0000000254480150379     -0.0000000391766614522     -0.0000000523068368150     -0.0000000627789436767     -0.0000000678084974104     -0.0000000633481882635     -0.0000000435092922123     -0.0000000016085502673     0.0000000658911933341     0.0000001627128230934     0.0000002727980732067     0.0000003452344926238     0.0000003269469127392     0.0000002001759248547     0.0000000000004428562     -0.0000002001748341287     -0.0000003269452899976     -0.0000003452322263628     -0.0000002727953145087     -0.0000001627099337553     -0.0000000658886239742     0.0000000016104605965     0.0000000435105712941     0.0000000633490411114     0.0000000678092124007     0.0000000627798059429     0.0000000523080629000     0.0000000391783615292     0.0000000254501775632     0.0000000123524248058     0.0000000000013098755 
    0.0000000000012595313     -0.0000000180367491619     -0.0000000363796776674     -0.0000000545710514748     -0.0000000712112635072     -0.0000000841478559239     -0.0000000901812126212     -0.0000000838478758681     -0.0000000562976831916     0.0000000031753187387     0.0000001060132283077     0.0000002649784994974     0.0000004411209416180     0.0000005510928942942     0.0000005162025257685     0.0000003138851696426     -0.0000000000000649704     -0.0000003138851117611     -0.0000005162019741753     -0.0000005510917200858     -0.0000004411192263859     -0.0000002649764972302     -0.0000001060112826055     -0.0000000031737652882     0.0000000562987458281     0.0000000838486272329     0.0000000901819045566     0.0000000841487352878     0.0000000712125103807     0.0000000545727460608     0.0000000363817925559     0.0000000180391611539     0.0000000000012595313 
    0.0000000000010887170     -0.0000000222590485166     -0.0000000446256665018     -0.0000000664979373540     -0.0000000864184839223     -0.0000001021466884068     -0.0000001099352972862     -0.0000001025809077378     -0.0000000677001250144     0.0000000098610836390     0.0000001577400319406     0.0000003882373105145     0.0000006360327725515     0.0000007839636450619     0.0000007273737246541     0.0000004398352890015     -0.0000000000004708032     -0.0000004398360780407     -0.0000007273741080611     -0.0000007839634972626     -0.0000006360321131589     -0.0000003882362808214     -0.0000001577388541292     -0.0000000098600073698     0.0000000677009188027     0.0000001025815163318     0.0000001099359085852     0.0000001021474899785     0.0000000864196105511     0.0000000664994424737     0.0000000446275176740     0.0000000222611400920     0.0000000000010887170 
    0.0000000000008055803     -0.0000000252160071836     -0.0000000504674754921     -0.0000000751165930270     -0.0000000977202687266     -0.0000001159814806700     -0.0000001256226400484     -0.0000001177510878491     -0.0000000765702350237     0.0000000179431459807     0.0000002112168579030     0.0000005087383362053     0.0000008213344570197     0.0000010018753029128     0.0000009231519115760     0.0000005560227920194     -0.0000000000005964061     -0.0000005560238802313     -0.0000009231527190934     -0.0000010018757309837     -0.0000008213344893806     -0.0000005087380274225     -0.0000002112163236293     -0.0000000179425445467     0.0000000765707452336     0.0000001177515161999     0.0000001256231031906     0.0000001159820994242     0.0000000977211302088     0.0000000751177286126     0.0000000504688574000     0.0000000252175582800     0.0000000000008055803 
    0.0000000000004297631     -0.0000000269799517035     -0.0000000539778956182     -0.0000000803627483270     -0.0000001047273107347     -0.0000001247474233583     -0.0000001357628276546     -0.0000001276491194627     -0.0000000821250276603     0.0000000250529475191     0.0000002519521289636     0.0000005972584778571     0.0000009551067089528     0.0000011576489284486     0.0000010622922406448     0.0000006383381733634     -0.0000000000004021450     -0.0000006383389254943     -0.0000010622928519065     -0.0000011576493449492     -0.0000009551069112861     -0.0000005972584768999     -0.0000002519519682879     -0.0000000250527016023     0.0000000821252718182     0.0000001276493405246     0.0000001357630789987     0.0000001247477625462     0.0000001047277797521     0.0000000803633613207     0.0000000539786367445     0.0000000269807802855     0.0000000000004297631 
    0.0000000000000000000     -0.0000000275677718907     -0.0000000551515317905     -0.0000000821275985896     -0.0000001071058720477     -0.0000001277546418526     -0.0000001392741405525     -0.0000001310882349843     -0.0000000840813705490     0.0000000279151443812     0.0000002672121482861     0.0000006298428318178     0.0000010039387049869     0.0000012142438292830     0.0000011127020690872     0.0000006681150842986     -0.0000000000000000000     -0.0000006681150842986     -0.0000011127020690872     -0.0000012142438292830     -0.0000010039387049869     -0.0000006298428318178     -0.0000002672121482861     -0.0000000279151443812     0.0000000840813705490     0.0000001310882349843     0.0000001392741405525     0.0000001277546418526     0.0000001071058720477     0.0000000821275985896     0.0000000551515317905     0.0000000275677718907     0.0000000000000000000 
    -0.0000000000004297631     -0.0000000269807802855     -0.0000000539786367445     -0.0000000803633613207     -0.0000001047277797521     -0.0000001247477625462     -0.0000001357630789987     -0.0000001276493405246     -0.0000000821252718182     0.0000000250527016023     0.0000002519519682879     0.0000005972584768999     0.0000009551069112861     0.0000011576493449492     0.0000010622928519065     0.0000006383389254943     0.0000000000004021450     -0.0000006383381733634     -0.0000010622922406448     -0.0000011576489284486     -0.0000009551067089528     -0.0000005972584778571     -0.0000002519521289636     -0.0000000250529475191     0.0000000821250276603     0.0000001276491194627     0.0000001357628276546     0.0000001247474233583     0.0000001047273107347     0.0000000803627483270     0.0000000539778956182     0.0000000269799517035     -0.0000000000004297631 
    -0.0000000000008055803     -0.0000000252175582800     -0.0000000504688574000     -0.0000000751177286126     -0.0000000977211302088     -0.0000001159820994242     -0.0000001256231031906     -0.0000001177515161999     -0.0000000765707452336     0.0000000179425445467     0.0000002112163236293     0.0000005087380274225     0.0000008213344893806     0.0000010018757309837     0.0000009231527190934     0.0000005560238802313     0.0000000000005964061     -0.0000005560227920194     -0.0000009231519115760     -0.0000010018753029128     -0.0000008213344570197     -0.0000005087383362053     -0.0000002112168579030     -0.0000000179431459807     0.0000000765702350237     0.0000001177510878491     0.0000001256226400484     0.0000001159814806700     0.0000000977202687266     0.0000000751165930270     0.0000000504674754921     0.0000000252160071836     -0.0000000000008055803 
    -0.0000000000010887170     -0.0000000222611400920     -0.0000000446275176740     -0.0000000664994424737     -0.0000000864196105511     -0.0000001021474899785     -0.0000001099359085852     -0.0000001025815163318     -0.0000000677009188027     0.0000000098600073698     0.0000001577388541292     0.0000003882362808214     0.0000006360321131589     0.0000007839634972626     0.0000007273741080611     0.0000004398360780407     0.0000000000004708032     -0.0000004398352890015     -0.0000007273737246541     -0.0000007839636450619     -0.0000006360327725515     -0.0000003882373105145     -0.0000001577400319406     -0.0000000098610836390     0.0000000677001250144     0.0000001025809077378     0.0000001099352972862     0.0000001021466884068     0.0000000864184839223     0.0000000664979373540     0.0000000446256665018     0.0000000222590485166     -0.0000000000010887170 
    -0.0000000000012595313     -0.0000000180391611539     -0.0000000363817925559     -0.0000000545727460608     -0.0000000712125103807     -0.0000000841487352878     -0.0000000901819045566     -0.0000000838486272329     -0.0000000562987458281     0.0000000031737652882     0.0000001060112826055     0.0000002649764972302     0.0000004411192263859     0.0000005510917200858     0.0000005162019741753     0.0000003138851117611     0.0000000000000649704     -0.0000003138851696426     -0.0000005162025257685     -0.0000005510928942942     -0.0000004411209416180     -0.0000002649784994974     -0.0000001060132283077     -0.0000000031753187387     0.0000000562976831916     0.0000000838478758681     0.0000000901812126212     0.0000000841478559239     0.0000000712112635072     0.0000000545710514748     0.0000000363796776674     0.0000000180367491619     -0.0000000000012595313 
    -0.0000000000013098755     -0.0000000123524248058     -0.0000000254501775632     -0.0000000391783615292     -0.0000000523080629000     -0.0000000627798059429     -0.0000000678092124007     -0.0000000633490411114     -0.0000000435105712941     -0.0000000016104605965     0.0000000658886239742     0.0000001627099337553     0.0000002727953145087     0.0000003452322263628     0.0000003269452899976     0.0000002001748341287     -0.0000000000004428562     -0.0000002001759248547     -0.0000003269469127392     -0.0000003452344926238     -0.0000002727980732067     -0.0000001627128230934     -0.0000000658911933341     0.0000000016085502673     0.0000000435092922123     0.0000000633481882635     0.0000000678084974104     0.0000000627789436767     0.0000000523068368150     0.0000000391766614522     0.0000000254480150379     0.0000000123499272797     -0.0000000000013098755 
    -0.0000000000012346840     -0.0000000047673901036     -0.0000000111519311255     -0.0000000196891232422     -0.0000000294442198270     -0.0000000383690341650     -0.0000000437871439386     -0.0000000424644454994     -0.0000000304936359951     -0.0000000039876662228     0.0000000384435559068     0.0000000924287432989     0.0000001512963806882     0.0000001917166732073     0.0000001830066471191     0.0000001127762426990     -0.0000000000008178396     -0.0000001127780836908     -0.0000001830090141199     -0.0000001917196506133     -0.0000001512997615875     -0.0000000924320902783     -0.0000000384463905562     0.0000000039855457604     0.0000000304922123205     0.0000000424635285475     0.0000000437864501583     0.0000000383682699585     0.0000000294431456096     0.0000000196875978230     0.0000000111499398473     0.0000000047650500139     -0.0000000000012346840 
    -0.0000000000010337037     0.0000000055160849972     0.0000000078202789676     0.0000000052610088552     -0.0000000016103784853     -0.0000000104994354695     -0.0000000183072821369     -0.0000000218201457183     -0.0000000180185771554     -0.0000000045430431807     0.0000000190592415230     0.0000000494246743055     0.0000000781830767950     0.0000000956907032288     0.0000000905271742170     0.0000000557809176249     -0.0000000000008792873     -0.0000000557828700445     -0.0000000905296184116     -0.0000000956936998970     -0.0000000781863922955     -0.0000000494279174097     -0.0000000190620648688     0.0000000045408632262     0.0000000180170774755     0.0000000218191950137     0.0000000183066442987     0.0000000104988384888     0.0000000016095743262     -0.0000000052621907162     -0.0000000078218868683     -0.0000000055180263922     -0.0000000000010337037 
    -0.0000000000007240749     0.0000000197689924712     0.0000000335749963605     0.0000000379691790842     0.0000000331128909309     0.0000000220905780380     0.0000000092558275533     -0.0000000012544720801     -0.0000000062952939973     -0.0000000040316464398     0.0000000056539908319     0.0000000205123609305     0.0000000356231148101     0.0000000444074117461     0.0000000413063411061     0.0000000250036081261     -0.0000000000005759538     -0.0000000250049352319     -0.0000000413081190383     -0.0000000444097327852     -0.0000000356258469116     -0.0000000205152047359     -0.0000000056566042417     0.0000000040295240908     0.0000000062937742885     0.0000000012535145705     -0.0000000092563806204     -0.0000000220909545202     -0.0000000331133340507     -0.0000000379698831937     -0.0000000335760454491     -0.0000000197703292405     -0.0000000000007240749 
    -0.0000000000003520332     0.0000000396934826594     0.0000000689487903889     0.0000000815606097686     0.0000000774141369822     0.0000000613160478928     0.0000000400966603961     0.0000000199191314389     0.0000000049116973793     -0.0000000029973616868     -0.0000000037850543019     0.0000000008905170085     0.0000000079194029270     0.0000000134307395616     0.0000000141693457094     0.0000000090697114980     -0.0000000000000982369     -0.0000000090700879371     -0.0000000141702005557     -0.0000000134322077134     -0.0000000079214130715     -0.0000000008928273328     0.0000000037827614991     0.0000000029953756451     -0.0000000049131876776     -0.0000000199200664168     -0.0000000400971083758     -0.0000000613161812361     -0.0000000774141825221     -0.0000000815607752561     -0.0000000689491903227     -0.0000000396940997092     -0.0000000000003520332 
    0.0000000000000112253     0.0000000670594217954     0.0000001168816355314     0.0000001392555084490     0.0000001340411744345     0.0000001091237111148     0.0000000754500137623     0.0000000424748194149     0.0000000160027746856     -0.0000000017021102872     -0.0000000108121989358     -0.0000000129285812721     -0.0000000104730277618     -0.0000000061924938446     -0.0000000024649815118     -0.0000000005101069989     0.0000000000002915256     0.0000000005105161844     0.0000000024649185667     0.0000000061917947040     0.0000000104717061902     0.0000000129268155238     0.0000000108102695839     0.0000000017003181346     -0.0000000160041819023     -0.0000000424756985180     -0.0000000754503530354     -0.0000001091236262973     -0.0000001340408648880     -0.0000001392551798856     -0.0000001168814212175     -0.0000000670593419641     0.0000000000000112253 
    0.0000000000002673504     0.0000001056107086068     0.0000001807098176849     0.0000002127206586310     0.0000002043012638550     0.0000001663365148286     0.0000001157999440361     0.0000000667691984951     0.0000000272476683939     -0.0000000002222524117     -0.0000000163540483419     -0.0000000232224830959     -0.0000000233094855823     -0.0000000191458275399     -0.0000000129968795657     -0.0000000064218730593     0.0000000000005373743     0.0000000064227906100     0.0000000129973626964     0.0000000191457025979     0.0000000233087244322     0.0000000232212072475     0.0000000163524937922     0.0000000002207079210     -0.0000000272489312455     -0.0000000667699883318     -0.0000001158001930213     -0.0000001663362874976     -0.0000002043007208575     -0.0000002127199850057     -0.0000001807091625551     -0.0000001056101340570     0.0000000000002673504 
    0.0000000000003435051     0.0000001622610333273     0.0000002733288919117     0.0000003098352778530     0.0000002862247645757     0.0000002311451677912     0.0000001599606262047     0.0000000922601479391     0.0000000385534359883     0.0000000014220748943     -0.0000000208249602913     -0.0000000311979980329     -0.0000000327124645368     -0.0000000281537570564     -0.0000000200227435369     -0.0000000102611388982     0.0000000000006374513     0.0000000102622806195     0.0000000200235124038     0.0000000281539899674     0.0000000327121122459     0.0000000311971385510     0.0000000208237813680     -0.0000000014233210802     -0.0000000385544938768     -0.0000000922608198882     -0.0000001599608178308     -0.0000002311449015646     -0.0000002862241543189     -0.0000003098345125845     -0.0000002733281244842     -0.0000001622603186431     0.0000000000003435051 
    0.0000000000002942797     0.0000002298690805069     0.0000003856065067950     0.0000004313222987127     0.0000003842689376209     0.0000002979420679733     0.0000002044135804383     0.0000001171988641573     0.0000000493298502773     0.0000000031548749482     -0.0000000243255072168     -0.0000000373432252164     -0.0000000396844933747     -0.0000000345809682972     -0.0000000248758691787     -0.0000000128558800697     0.0000000000006117170     0.0000000128569991558     0.0000000248766937304     0.0000000345813625392     0.0000000396844058904     0.0000000373427038262     0.0000000243246904317     -0.0000000031557904974     -0.0000000493306576163     -0.0000001171993950004     -0.0000002044137412199     -0.0000002979418517414     -0.0000003842684431321     -0.0000004313216807337     -0.0000003856058737013     -0.0000002298684755025     0.0000000000002942797 
    0.0000000000001922493     0.0000002950409842785     0.0000004947667483413     0.0000005515050698789     0.0000004845595610490     0.0000003609931733365     0.0000002434556933007     0.0000001387177057011     0.0000000585053796684     0.0000000047722432117     -0.0000000268329381467     -0.0000000417683803117     -0.0000000445992226396     -0.0000000390078948460     -0.0000000281519662471     -0.0000000145833388902     0.0000000000004802909     0.0000000145842274975     0.0000000281526508452     0.0000000390082789190     0.0000000445992659381     0.0000000417681102272     0.0000000268324450127     -0.0000000047728278914     -0.0000000585059154330     -0.0000001387180750999     -0.0000002434558240169     -0.0000003609930515901     -0.0000004845592646283     -0.0000005515046882767     -0.0000004947663467137     -0.0000002950405922853     0.0000000000001922493 
    0.0000000000000893574     0.0000003424163602246     0.0000005744833216935     0.0000006400903554960     0.0000005597999785143     0.0000004099278273313     0.0000002704953634275     0.0000001534760248540     0.0000000647648786738     0.0000000059549724798     -0.0000000283269904662     -0.0000000444484498042     -0.0000000475482045422     -0.0000000416338890803     -0.0000000300758978960     -0.0000000155908601658     0.0000000000002647874     0.0000000155913529213     0.0000000300762861188     0.0000000416341228117     0.0000000475482621374     0.0000000444483438004     0.0000000283267651763     -0.0000000059552521014     -0.0000000647651430931     -0.0000001534762150846     -0.0000002704954406528     -0.0000004099277852968     -0.0000005597998545788     -0.0000006400901880073     -0.0000005744831399183     -0.0000003424161792877     0.0000000000000893574 
    0.0000000000000000000     0.0000003597626249491     0.0000006037301691080     0.0000006727241863982     0.0000005877331526016     0.0000004283769754526     0.0000002801943415380     0.0000001587474658860     0.0000000669974761501     0.0000000063928081765     -0.0000000288207454258     -0.0000000453462648305     -0.0000000485333018107     -0.0000000425073858122     -0.0000000307135514573     -0.0000000159240447770     -0.0000000000000000000     0.0000000159240447770     0.0000000307135514573     0.0000000425073858122     0.0000000485333018107     0.0000000453462648305     0.0000000288207454258     -0.0000000063928081765     -0.0000000669974761501     -0.0000001587474658860     -0.0000002801943415380     -0.0000004283769754526     -0.0000005877331526016     -0.0000006727241863982     -0.0000006037301691080     -0.0000003597626249491     0.0000000000000000000 
    0.0000000000000000000     0.0000005386585581926     0.0000009030162839876     0.0000010003050890067     0.0000008549129738641     0.0000005806301060105     0.0000003100899694083     0.0000001240570579586     0.0000000147458628233     -0.0000000470829839914     -0.0000000751777156153     -0.0000000820047044013     -0.0000000757843445251     -0.0000000615281248024     -0.0000000426646016228     -0.0000000216675391253     -0.0000000000000000000     0.0000000216675391253     0.0000000426646016228     0.0000000615281248024     0.0000000757843445251     0.0000000820047044013     0.0000000751777156153     0.0000000470829839914     -0.0000000147458628233     -0.0000001240570579586     -0.0000003100899694083     -0.0000005806301060105     -0.0000008549129738641     -0.0000010003050890067     -0.0000009030162839876     -0.0000005386585581926     0.0000000000000000000 
    0.0000000000000345131     0.0000005138514441334     0.0000008608962063580     0.0000009526726446173     0.0000008131369151155     0.0000005516802668199     0.0000002950057172900     0.0000001190310137719     0.0000000137437266953     -0.0000000461198051041     -0.0000000734757443677     -0.0000000801929568359     -0.0000000741531300054     -0.0000000602181478581     -0.0000000417549456561     -0.0000000212030880464     -0.0000000000003432985     0.0000000212024356293     0.0000000417543901756     0.0000000602177353832     0.0000000741528800591     0.0000000801928565799     0.0000000734757502814     0.0000000461198536488     -0.0000000137437022800     -0.0000001190310675208     -0.0000002950058451741     -0.0000005516804196402     -0.0000008131370481341     -0.0000009526727248766     -0.0000008608962186875     -0.0000005138513982412     0.0000000000000345131 
    -0.0000000000000220118     0.0000004455303252245     0.0000007450542288941     0.0000008220165990249     0.0000006990730555504     0.0000004732756583210     0.0000002547574974130     0.0000001054677578024     0.0000000110899935301     -0.0000000432528587151     -0.0000000684860548467     -0.0000000748509668016     -0.0000000693048259039     -0.0000000562974211430     -0.0000000390185161719     -0.0000000198013732834     -0.0000000000006340071     0.0000000198001718282     0.0000000390175030349     0.0000000562966845630     0.0000000693044014217     0.0000000748508261342     0.0000000684861088605     0.0000000432529774680     -0.0000000110899477961     -0.0000001054678964321     -0.0000002547578409635     -0.0000004732761034645     -0.0000006990734939871     -0.0000008220169448282     -0.0000007450544394612     -0.0000004455304167222     -0.0000000000000220118 
    -0.0000000000002013202     0.0000003498251956556     0.0000005832660180170     0.0000006405802203636     0.0000005422506464934     0.0000003673477480298     0.0000002020694796544     0.0000000863691990617     0.0000000076357237227     -0.0000000385946445080     -0.0000000605452194635     -0.0000000662326633473     -0.0000000613469926269     -0.0000000497645343291     -0.0000000344075941992     -0.0000000174229323974     -0.0000000000008359744     0.0000000174213562372     0.0000000344062877141     0.0000000497636201286     0.0000000613465148117     0.0000000662325730700     0.0000000605453800807     0.0000000385948598332     -0.0000000076356619119     -0.0000000863694574768     -0.0000002020701276217     -0.0000003673486453877     -0.0000005422515994072     -0.0000006405810655539     -0.0000005832666693979     -0.0000003498256695323     -0.0000000000002013202 
    -0.0000000000004474972     0.0000002473297274956     0.0000004108857146268     0.0000004491556701440     0.0000003796015514148     0.0000002606991026695     0.0000001513970801792     0.0000000653973630926     0.0000000042779246938     -0.0000000324098433389     -0.0000000501416568526     -0.0000000546545182583     -0.0000000503454590121     -0.0000000405035114104     -0.0000000277444608112     -0.0000000139437120916     -0.0000000000009307770     0.0000000139419713531     0.0000000277430573050     0.0000000405025903725     0.0000000503450614004     0.0000000546545674571     0.0000000501419697759     0.0000000324101672376     -0.0000000042778534592     -0.0000000653977502958     -0.0000001513980167578     -0.0000002607004818803     -0.0000003796030881968     -0.0000004491571129010     -0.0000004108869243809     -0.0000002473307132624     -0.0000000000004474972 
    -0.0000000000006365912     0.0000001565471330396     0.0000002594710933576     0.0000002836737740220     0.0000002428291874824     0.0000001751271564752     0.0000001061602540345     0.0000000454995245423     0.0000000015978963453     -0.0000000250712233693     -0.0000000377429551471     -0.0000000402932830756     -0.0000000361127102783     -0.0000000280746848479     -0.0000000185449196402     -0.0000000090522110326     -0.0000000000009063587     0.0000000090505384852     0.0000000185436333844     0.0000000280739372520     0.0000000361125239906     0.0000000402935454907     0.0000000377434420455     0.0000000250716463422     -0.0000000015978245714     -0.0000000455000159983     -0.0000001061613823136     -0.0000001751288340653     -0.0000002428311324992     -0.0000002836756564834     -0.0000002594727246251     -0.0000001565485103306     -0.0000000000006365912 
    -0.0000000000006362644     0.0000000890241094642     0.0000001483681625048     0.0000001653556006450     0.0000001489975469413     0.0000001119105347367     0.0000000676202715620     0.0000000282583119227     -0.0000000002160124762     -0.0000000168883107798     -0.0000000235359294308     -0.0000000228850478548     -0.0000000178752632435     -0.0000000113750367924     -0.0000000057282608983     -0.0000000020798269675     -0.0000000000007498248     0.0000000020784786911     0.0000000057273227715     0.0000000113746502852     0.0000000178754168018     0.0000000228855858019     0.0000000235365953760     0.0000000168888084840     0.0000000002160725439     -0.0000000282588652902     -0.0000000676214661415     -0.0000001119122345211     -0.0000001489994993699     -0.0000001653575143747     -0.0000001483698179916     -0.0000000890254940480     -0.0000000000006362644 
    -0.0000000000003721213     0.0000000477315058217     0.0000000815625293022     0.0000000937213575043     0.0000000850438935063     0.0000000629069323728     0.0000000367085001494     0.0000000139758212653     -0.0000000012236227126     -0.0000000079119628457     -0.0000000071717647701     -0.0000000013952161993     0.0000000061304184418     0.0000000117978820873     0.0000000127645289662     0.0000000082247578915     -0.0000000000004576379     -0.0000000082255217734     -0.0000000127648911361     -0.0000000117977296294     -0.0000000061298090160     0.0000000013960813400     0.0000000071726084494     0.0000000079125082855     0.0000000012236574359     -0.0000000139763971340     -0.0000000367096424305     -0.0000000629084536230     -0.0000000850455163839     -0.0000000937228163060     -0.0000000815636763432     -0.0000000477323659947     -0.0000000000003721213 
    0.0000000000000585869     0.0000000238965259228     0.0000000403089272747     0.0000000451235446144     0.0000000389856882871     0.0000000262116591963     0.0000000123709259861     0.0000000021668134797     -0.0000000015422419043     0.0000000021673843319     0.0000000123719370727     0.0000000262128733384     0.0000000389868206863     0.0000000451243540880     0.0000000403093070514     0.0000000238965473062     -0.0000000000000585869     -0.0000000238965259228     -0.0000000403089272747     -0.0000000451235446144     -0.0000000389856882871     -0.0000000262116591963     -0.0000000123709259861     -0.0000000021668134797     0.0000000015422419043     -0.0000000021673843319     -0.0000000123719370727     -0.0000000262128733384     -0.0000000389868206863     -0.0000000451243540880     -0.0000000403093070514     -0.0000000238965473062     0.0000000000000585869 
    0.0000000000004576379     0.0000000082255217734     0.0000000127648911361     0.0000000117977296294     0.0000000061298090160     -0.0000000013960813400     -0.0000000071726084494     -0.0000000079125082855     -0.0000000012236574359     0.0000000139763971340     0.0000000367096424305     0.0000000629084536230     0.0000000850455163839     0.0000000937228163060     0.0000000815636763432     0.0000000477323659947     0.0000000000003721213     -0.0000000477315058217     -0.0000000815625293022     -0.0000000937213575043     -0.0000000850438935063     -0.0000000629069323728     -0.0000000367085001494     -0.0000000139758212653     0.0000000012236227126     0.0000000079119628457     0.0000000071717647701     0.0000000013952161993     -0.0000000061304184418     -0.0000000117978820873     -0.0000000127645289662     -0.0000000082247578915     0.0000000000004576379 
    0.0000000000007498248     -0.0000000020784786911     -0.0000000057273227715     -0.0000000113746502852     -0.0000000178754168018     -0.0000000228855858019     -0.0000000235365953760     -0.0000000168888084840     -0.0000000002160725439     0.0000000282588652902     0.0000000676214661415     0.0000001119122345211     0.0000001489994993699     0.0000001653575143747     0.0000001483698179916     0.0000000890254940480     0.0000000000006362644     -0.0000000890241094642     -0.0000001483681625048     -0.0000001653556006450     -0.0000001489975469413     -0.0000001119105347367     -0.0000000676202715620     -0.0000000282583119227     0.0000000002160124762     0.0000000168883107798     0.0000000235359294308     0.0000000228850478548     0.0000000178752632435     0.0000000113750367924     0.0000000057282608983     0.0000000020798269675     0.0000000000007498248 
    0.0000000000009063587     -0.0000000090505384852     -0.0000000185436333844     -0.0000000280739372520     -0.0000000361125239906     -0.0000000402935454907     -0.0000000377434420455     -0.0000000250716463422     0.0000000015978245714     0.0000000455000159983     0.0000001061613823136     0.0000001751288340653     0.0000002428311324992     0.0000002836756564834     0.0000002594727246251     0.0000001565485103306     0.0000000000006365912     -0.0000001565471330396     -0.0000002594710933576     -0.0000002836737740220     -0.0000002428291874824     -0.0000001751271564752     -0.0000001061602540345     -0.0000000454995245423     -0.0000000015978963453     0.0000000250712233693     0.0000000377429551471     0.0000000402932830756     0.0000000361127102783     0.0000000280746848479     0.0000000185449196402     0.0000000090522110326     0.0000000000009063587 
    0.0000000000009307770     -0.0000000139419713531     -0.0000000277430573050     -0.0000000405025903725     -0.0000000503450614004     -0.0000000546545674571     -0.0000000501419697759     -0.0000000324101672376     0.0000000042778534592     0.0000000653977502958     0.0000001513980167578     0.0000002607004818803     0.0000003796030881968     0.0000004491571129010     0.0000004108869243809     0.0000002473307132624     0.0000000000004474972     -0.0000002473297274956     -0.0000004108857146268     -0.0000004491556701440     -0.0000003796015514148     -0.0000002606991026695     -0.0000001513970801792     -0.0000000653973630926     -0.0000000042779246938     0.0000000324098433389     0.0000000501416568526     0.0000000546545182583     0.0000000503454590121     0.0000000405035114104     0.0000000277444608112     0.0000000139437120916     0.0000000000009307770 
    0.0000000000008359744     -0.0000000174213562372     -0.0000000344062877141     -0.0000000497636201286     -0.0000000613465148117     -0.0000000662325730700     -0.0000000605453800807     -0.0000000385948598332     0.0000000076356619119     0.0000000863694574768     0.0000002020701276217     0.0000003673486453877     0.0000005422515994072     0.0000006405810655539     0.0000005832666693979     0.0000003498256695323     0.0000000000002013202     -0.0000003498251956556     -0.0000005832660180170     -0.0000006405802203636     -0.0000005422506464934     -0.0000003673477480298     -0.0000002020694796544     -0.0000000863691990617     -0.0000000076357237227     0.0000000385946445080     0.0000000605452194635     0.0000000662326633473     0.0000000613469926269     0.0000000497645343291     0.0000000344075941992     0.0000000174229323974     0.0000000000008359744 
    0.0000000000006340071     -0.0000000198001718282     -0.0000000390175030349     -0.0000000562966845630     -0.0000000693044014217     -0.0000000748508261342     -0.0000000684861088605     -0.0000000432529774680     0.0000000110899477961     0.0000001054678964321     0.0000002547578409635     0.0000004732761034645     0.0000006990734939871     0.0000008220169448282     0.0000007450544394612     0.0000004455304167222     0.0000000000000220118     -0.0000004455303252245     -0.0000007450542288941     -0.0000008220165990249     -0.0000006990730555504     -0.0000004732756583210     -0.0000002547574974130     -0.0000001054677578024     -0.0000000110899935301     0.0000000432528587151     0.0000000684860548467     0.0000000748509668016     0.0000000693048259039     0.0000000562974211430     0.0000000390185161719     0.0000000198013732834     0.0000000000006340071 
    0.0000000000003432985     -0.0000000212024356293     -0.0000000417543901756     -0.0000000602177353832     -0.0000000741528800591     -0.0000000801928565799     -0.0000000734757502814     -0.0000000461198536488     0.0000000137437022800     0.0000001190310675208     0.0000002950058451741     0.0000005516804196402     0.0000008131370481341     0.0000009526727248766     0.0000008608962186875     0.0000005138513982412     -0.0000000000000345131     -0.0000005138514441334     -0.0000008608962063580     -0.0000009526726446173     -0.0000008131369151155     -0.0000005516802668199     -0.0000002950057172900     -0.0000001190310137719     -0.0000000137437266953     0.0000000461198051041     0.0000000734757443677     0.0000000801929568359     0.0000000741531300054     0.0000000602181478581     0.0000000417549456561     0.0000000212030880464     0.0000000000003432985 
    0.0000000000000000000     -0.0000000216675391253     -0.0000000426646016228     -0.0000000615281248024     -0.0000000757843445251     -0.0000000820047044013     -0.0000000751777156153     -0.0000000470829839914     0.0000000147458628233     0.0000001240570579586     0.0000003100899694083     0.0000005806301060105     0.0000008549129738641     0.0000010003050890067     0.0000009030162839876     0.0000005386585581926     -0.0000000000000000000     -0.0000005386585581926     -0.0000009030162839876     -0.0000010003050890067     -0.0000008549129738641     -0.0000005806301060105     -0.0000003100899694083     -0.0000001240570579586     -0.0000000147458628233     0.0000000470829839914     0.0000000751777156153     0.0000000820047044013     0.0000000757843445251     0.0000000615281248024     0.0000000426646016228     0.0000000216675391253     0.0000000000000000000 
    -0.0000000000003432985     -0.0000000212030880464     -0.0000000417549456561     -0.0000000602181478581     -0.0000000741531300054     -0.0000000801929568359     -0.0000000734757443677     -0.0000000461198051041     0.0000000137437266953     0.0000001190310137719     0.0000002950057172900     0.0000005516802668199     0.0000008131369151155     0.0000009526726446173     0.0000008608962063580     0.0000005138514441334     0.0000000000000345131     -0.0000005138513982412     -0.0000008608962186875     -0.0000009526727248766     -0.0000008131370481341     -0.0000005516804196402     -0.0000002950058451741     -0.0000001190310675208     -0.0000000137437022800     0.0000000461198536488     0.0000000734757502814     0.0000000801928565799     0.0000000741528800591     0.0000000602177353832     0.0000000417543901756     0.0000000212024356293     -0.0000000000003432985 
    -0.0000000000006340071     -0.0000000198013732834     -0.0000000390185161719     -0.0000000562974211430     -0.0000000693048259039     -0.0000000748509668016     -0.0000000684860548467     -0.0000000432528587151     0.0000000110899935301     0.0000001054677578024     0.0000002547574974130     0.0000004732756583210     0.0000006990730555504     0.0000008220165990249     0.0000007450542288941     0.0000004455303252245     -0.0000000000000220118     -0.0000004455304167222     -0.0000007450544394612     -0.0000008220169448282     -0.0000006990734939871     -0.0000004732761034645     -0.0000002547578409635     -0.0000001054678964321     -0.0000000110899477961     0.0000000432529774680     0.0000000684861088605     0.0000000748508261342     0.0000000693044014217     0.0000000562966845630     0.0000000390175030349     0.0000000198001718282     -0.0000000000006340071 
    -0.0000000000008359744     -0.0000000174229323974     -0.0000000344075941992     -0.0000000497645343291     -0.0000000613469926269     -0.0000000662326633473     -0.0000000605452194635     -0.0000000385946445080     0.0000000076357237227     0.0000000863691990617     0.0000002020694796544     0.0000003673477480298     0.0000005422506464934     0.0000006405802203636     0.0000005832660180170     0.0000003498251956556     -0.0000000000002013202     -0.0000003498256695323     -0.0000005832666693979     -0.0000006405810655539     -0.0000005422515994072     -0.0000003673486453877     -0.0000002020701276217     -0.0000000863694574768     -0.0000000076356619119     0.0000000385948598332     0.0000000605453800807     0.0000000662325730700     0.0000000613465148117     0.0000000497636201286     0.0000000344062877141     0.0000000174213562372     -0.0000000000008359744 
    -0.0000000000009307770     -0.0000000139437120916     -0.0000000277444608112     -0.0000000405035114104     -0.0000000503454590121     -0.0000000546545182583     -0.0000000501416568526     -0.0000000324098433389     0.0000000042779246938     0.0000000653973630926     0.0000001513970801792     0.0000002606991026695     0.0000003796015514148     0.0000004491556701440     0.0000004108857146268     0.0000002473297274956     -0.0000000000004474972     -0.0000002473307132624     -0.0000004108869243809     -0.0000004491571129010     -0.0000003796030881968     -0.0000002607004818803     -0.0000001513980167578     -0.0000000653977502958     -0.0000000042778534592     0.0000000324101672376     0.0000000501419697759     0.0000000546545674571     0.0000000503450614004     0.0000000405025903725     0.0000000277430573050     0.0000000139419713531     -0.0000000000009307770 
    -0.0000000000009063587     -0.0000000090522110326     -0.0000000185449196402     -0.0000000280746848479     -0.0000000361127102783     -0.0000000402932830756     -0.0000000377429551471     -0.0000000250712233693     0.0000000015978963453     0.0000000454995245423     0.0000001061602540345     0.0000001751271564752     0.0000002428291874824     0.0000002836737740220     0.0000002594710933576     0.0000001565471330396     -0.0000000000006365912     -0.0000001565485103306     -0.0000002594727246251     -0.0000002836756564834     -0.0000002428311324992     -0.0000001751288340653     -0.0000001061613823136     -0.0000000455000159983     -0.0000000015978245714     0.0000000250716463422     0.0000000377434420455     0.0000000402935454907     0.0000000361125239906     0.0000000280739372520     0.0000000185436333844     0.0000000090505384852     -0.0000000000009063587 
    -0.0000000000007498248     -0.0000000020798269675     -0.0000000057282608983     -0.0000000113750367924     -0.0000000178752632435     -0.0000000228850478548     -0.0000000235359294308     -0.0000000168883107798     -0.0000000002160124762     0.0000000282583119227     0.0000000676202715620     0.0000001119105347367     0.0000001489975469413     0.0000001653556006450     0.0000001483681625048     0.0000000890241094642     -0.0000000000006362644     -0.0000000890254940480     -0.0000001483698179916     -0.0000001653575143747     -0.0000001489994993699     -0.0000001119122345211     -0.0000000676214661415     -0.0000000282588652902     0.0000000002160725439     0.0000000168888084840     0.0000000235365953760     0.0000000228855858019     0.0000000178754168018     0.0000000113746502852     0.0000000057273227715     0.0000000020784786911     -0.0000000000007498248 
    -0.0000000000004576379     0.0000000082247578915     0.0000000127645289662     0.0000000117978820873     0.0000000061304184418     -0.0000000013952161993     -0.0000000071717647701     -0.0000000079119628457     -0.0000000012236227126     0.0000000139758212653     0.0000000367085001494     0.0000000629069323728     0.0000000850438935063     0.0000000937213575043     0.0000000815625293022     0.0000000477315058217     -0.0000000000003721213     -0.0000000477323659947     -0.0000000815636763432     -0.0000000937228163060     -0.0000000850455163839     -0.0000000629084536230     -0.0000000367096424305     -0.0000000139763971340     0.0000000012236574359     0.0000000079125082855     0.0000000071726084494     0.0000000013960813400     -0.0000000061298090160     -0.0000000117977296294     -0.0000000127648911361     -0.0000000082255217734     -0.0000000000004576379 
    -0.0000000000000585869     0.0000000238965473062     0.0000000403093070514     0.0000000451243540880     0.0000000389868206863     0.0000000262128733384     0.0000000123719370727     0.0000000021673843319     -0.0000000015422419043     0.0000000021668134797     0.0000000123709259861     0.0000000262116591963     0.0000000389856882871     0.0000000451235446144     0.0000000403089272747     0.0000000238965259228     0.0000000000000585869     -0.0000000238965473062     -0.0000000403093070514     -0.0000000451243540880     -0.0000000389868206863     -0.0000000262128733384     -0.0000000123719370727     -0.0000000021673843319     0.0000000015422419043     -0.0000000021668134797     -0.0000000123709259861     -0.0000000262116591963     -0.0000000389856882871     -0.0000000451235446144     -0.0000000403089272747     -0.0000000238965259228     -0.0000000000000585869 
    0.0000000000003721213     0.0000000477323659947     0.0000000815636763432     0.0000000937228163060     0.0000000850455163839     0.0000000629084536230     0.0000000367096424305     0.0000000139763971340     -0.0000000012236574359     -0.0000000079125082855     -0.0000000071726084494     -0.0000000013960813400     0.0000000061298090160     0.0000000117977296294     0.0000000127648911361     0.0000000082255217734     0.0000000000004576379     -0.0000000082247578915     -0.0000000127645289662     -0.0000000117978820873     -0.0000000061304184418     0.0000000013952161993     0.0000000071717647701     0.0000000079119628457     0.0000000012236227126     -0.0000000139758212653     -0.0000000367085001494     -0.0000000629069323728     -0.0000000850438935063     -0.0000000937213575043     -0.0000000815625293022     -0.0000000477315058217     0.0000000000003721213 
    0.0000000000006362644     0.0000000890254940480     0.0000001483698179916     0.0000001653575143747     0.0000001489994993699     0.0000001119122345211     0.0000000676214661415     0.0000000282588652902     -0.0000000002160725439     -0.0000000168888084840     -0.0000000235365953760     -0.0000000228855858019     -0.0000000178754168018     -0.0000000113746502852     -0.0000000057273227715     -0.0000000020784786911     0.0000000000007498248     0.0000000020798269675     0.0000000057282608983     0.0000000113750367924     0.0000000178752632435     0.0000000228850478548     0.0000000235359294308     0.0000000168883107798     0.0000000002160124762     -0.0000000282583119227     -0.0000000676202715620     -0.0000001119105347367     -0.0000001489975469413     -0.0000001653556006450     -0.0000001483681625048     -0.0000000890241094642     0.0000000000006362644 
    0.0000000000006365912     0.0000001565485103306     0.0000002594727246251     0.0000002836756564834     0.0000002428311324992     0.0000001751288340653     0.0000001061613823136     0.0000000455000159983     0.0000000015978245714     -0.0000000250716463422     -0.0000000377434420455     -0.0000000402935454907     -0.0000000361125239906     -0.0000000280739372520     -0.0000000185436333844     -0.0000000090505384852     0.0000000000009063587     0.0000000090522110326     0.0000000185449196402     0.0000000280746848479     0.0000000361127102783     0.0000000402932830756     0.0000000377429551471     0.0000000250712233693     -0.0000000015978963453     -0.0000000454995245423     -0.0000001061602540345     -0.0000001751271564752     -0.0000002428291874824     -0.0000002836737740220     -0.0000002594710933576     -0.0000001565471330396     0.0000000000006365912 
    0.0000000000004474972     0.0000002473307132624     0.0000004108869243809     0.0000004491571129010     0.0000003796030881968     0.0000002607004818803     0.0000001513980167578     0.0000000653977502958     0.0000000042778534592     -0.0000000324101672376     -0.0000000501419697759     -0.0000000546545674571     -0.0000000503450614004     -0.0000000405025903725     -0.0000000277430573050     -0.0000000139419713531     0.0000000000009307770     0.0000000139437120916     0.0000000277444608112     0.0000000405035114104     0.0000000503454590121     0.0000000546545182583     0.0000000501416568526     0.0000000324098433389     -0.0000000042779246938     -0.0000000653973630926     -0.0000001513970801792     -0.0000002606991026695     -0.0000003796015514148     -0.0000004491556701440     -0.0000004108857146268     -0.0000002473297274956     0.0000000000004474972 
    0.0000000000002013202     0.0000003498256695323     0.0000005832666693979     0.0000006405810655539     0.0000005422515994072     0.0000003673486453877     0.0000002020701276217     0.0000000863694574768     0.0000000076356619119     -0.0000000385948598332     -0.0000000605453800807     -0.0000000662325730700     -0.0000000613465148117     -0.0000000497636201286     -0.0000000344062877141     -0.0000000174213562372     0.0000000000008359744     0.0000000174229323974     0.0000000344075941992     0.0000000497645343291     0.0000000613469926269     0.0000000662326633473     0.0000000605452194635     0.0000000385946445080     -0.0000000076357237227     -0.0000000863691990617     -0.0000002020694796544     -0.0000003673477480298     -0.0000005422506464934     -0.0000006405802203636     -0.0000005832660180170     -0.0000003498251956556     0.0000000000002013202 
    0.0000000000000220118     0.0000004455304167222     0.0000007450544394612     0.0000008220169448282     0.0000006990734939871     0.0000004732761034645     0.0000002547578409635     0.0000001054678964321     0.0000000110899477961     -0.0000000432529774680     -0.0000000684861088605     -0.0000000748508261342     -0.0000000693044014217     -0.0000000562966845630     -0.0000000390175030349     -0.0000000198001718282     0.0000000000006340071     0.0000000198013732834     0.0000000390185161719     0.0000000562974211430     0.0000000693048259039     0.0000000748509668016     0.0000000684860548467     0.0000000432528587151     -0.0000000110899935301     -0.0000001054677578024     -0.0000002547574974130     -0.0000004732756583210     -0.0000006990730555504     -0.0000008220165990249     -0.0000007450542288941     -0.0000004455303252245     0.0000000000000220118 
    -0.0000000000000345131     0.0000005138513982412     0.0000008608962186875     0.0000009526727248766     0.0000008131370481341     0.0000005516804196402     0.0000002950058451741     0.0000001190310675208     0.0000000137437022800     -0.0000000461198536488     -0.0000000734757502814     -0.0000000801928565799     -0.0000000741528800591     -0.0000000602177353832     -0.0000000417543901756     -0.0000000212024356293     0.0000000000003432985     0.0000000212030880464     0.0000000417549456561     0.0000000602181478581     0.0000000741531300054     0.0000000801929568359     0.0000000734757443677     0.0000000461198051041     -0.0000000137437266953     -0.0000001190310137719     -0.0000002950057172900     -0.0000005516802668199     -0.0000008131369151155     -0.0000009526726446173     -0.0000008608962063580     -0.0000005138514441334     -0.0000000000000345131 
    0.0000000000000000000     0.0000005386585581926     0.0000009030162839876     0.0000010003050890067     0.0000008549129738641     0.0000005806301060105     0.0000003100899694083     0.0000001240570579586     0.0000000147458628233     -0.0000000470829839914     -0.0000000751777156153     -0.0000000820047044013     -0.0000000757843445251     -0.0000000615281248024     -0.0000000426646016228     -0.0000000216675391253     -0.0000000000000000000     0.0000000216675391253     0.0000000426646016228     0.0000000615281248024     0.0000000757843445251     0.0000000820047044013     0.0000000751777156153     0.0000000470829839914     -0.0000000147458628233     -0.0000001240570579586     -0.0000003100899694083     -0.0000005806301060105     -0.0000008549129738641     -0.0000010003050890067     -0.0000009030162839876     -0.0000005386585581926     0.0000000000000000000 
    0.0000000000000000000     0.0000006681150842986     0.0000011127020690872     0.0000012142438292830     0.0000010039387049869     0.0000006298428318178     0.0000002672121482861     0.0000000279151443812     -0.0000000840813705490     -0.0000001310882349843     -0.0000001392741405525     -0.0000001277546418526     -0.0000001071058720477     -0.0000000821275985896     -0.0000000551515317905     -0.0000000275677718907     -0.0000000000000000000     0.0000000275677718907     0.0000000551515317905     0.0000000821275985896     0.0000001071058720477     0.0000001277546418526     0.0000001392741405525     0.0000001310882349843     0.0000000840813705490     -0.0000000279151443812     -0.0000002672121482861     -0.0000006298428318178     -0.0000010039387049869     -0.0000012142438292830     -0.0000011127020690872     -0.0000006681150842986     0.0000000000000000000 
    0.0000000000004021450     0.0000006383389254943     0.0000010622928519065     0.0000011576493449492     0.0000009551069112861     0.0000005972584768999     0.0000002519519682879     0.0000000250527016023     -0.0000000821252718182     -0.0000001276493405246     -0.0000001357630789987     -0.0000001247477625462     -0.0000001047277797521     -0.0000000803633613207     -0.0000000539786367445     -0.0000000269807802855     -0.0000000000004297631     0.0000000269799517035     0.0000000539778956182     0.0000000803627483270     0.0000001047273107347     0.0000001247474233583     0.0000001357628276546     0.0000001276491194627     0.0000000821250276603     -0.0000000250529475191     -0.0000002519521289636     -0.0000005972584778571     -0.0000009551067089528     -0.0000011576489284486     -0.0000010622922406448     -0.0000006383381733634     0.0000000000004021450 
    0.0000000000005964061     0.0000005560238802313     0.0000009231527190934     0.0000010018757309837     0.0000008213344893806     0.0000005087380274225     0.0000002112163236293     0.0000000179425445467     -0.0000000765707452336     -0.0000001177515161999     -0.0000001256231031906     -0.0000001159820994242     -0.0000000977211302088     -0.0000000751177286126     -0.0000000504688574000     -0.0000000252175582800     -0.0000000000008055803     0.0000000252160071836     0.0000000504674754921     0.0000000751165930270     0.0000000977202687266     0.0000001159814806700     0.0000001256226400484     0.0000001177510878491     0.0000000765702350237     -0.0000000179431459807     -0.0000002112168579030     -0.0000005087383362053     -0.0000008213344570197     -0.0000010018753029128     -0.0000009231519115760     -0.0000005560227920194     0.0000000000005964061 
    0.0000000000004708032     0.0000004398360780407     0.0000007273741080611     0.0000007839634972626     0.0000006360321131589     0.0000003882362808214     0.0000001577388541292     0.0000000098600073698     -0.0000000677009188027     -0.0000001025815163318     -0.0000001099359085852     -0.0000001021474899785     -0.0000000864196105511     -0.0000000664994424737     -0.0000000446275176740     -0.0000000222611400920     -0.0000000000010887170     0.0000000222590485166     0.0000000446256665018     0.0000000664979373540     0.0000000864184839223     0.0000001021466884068     0.0000001099352972862     0.0000001025809077378     0.0000000677001250144     -0.0000000098610836390     -0.0000001577400319406     -0.0000003882373105145     -0.0000006360327725515     -0.0000007839636450619     -0.0000007273737246541     -0.0000004398352890015     0.0000000000004708032 
    0.0000000000000649704     0.0000003138851117611     0.0000005162019741753     0.0000005510917200858     0.0000004411192263859     0.0000002649764972302     0.0000001060112826055     0.0000000031737652882     -0.0000000562987458281     -0.0000000838486272329     -0.0000000901819045566     -0.0000000841487352878     -0.0000000712125103807     -0.0000000545727460608     -0.0000000363817925559     -0.0000000180391611539     -0.0000000000012595313     0.0000000180367491619     0.0000000363796776674     0.0000000545710514748     0.0000000712112635072     0.0000000841478559239     0.0000000901812126212     0.0000000838478758681     0.0000000562976831916     -0.0000000031753187387     -0.0000001060132283077     -0.0000002649784994974     -0.0000004411209416180     -0.0000005510928942942     -0.0000005162025257685     -0.0000003138851696426     0.0000000000000649704 
    -0.0000000000004428562     0.0000002001748341287     0.0000003269452899976     0.0000003452322263628     0.0000002727953145087     0.0000001627099337553     0.0000000658886239742     -0.0000000016104605965     -0.0000000435105712941     -0.0000000633490411114     -0.0000000678092124007     -0.0000000627798059429     -0.0000000523080629000     -0.0000000391783615292     -0.0000000254501775632     -0.0000000123524248058     -0.0000000000013098755     0.0000000123499272797     0.0000000254480150379     0.0000000391766614522     0.0000000523068368150     0.0000000627789436767     0.0000000678084974104     0.0000000633481882635     0.0000000435092922123     0.0000000016085502673     -0.0000000658911933341     -0.0000001627128230934     -0.0000002727980732067     -0.0000003452344926238     -0.0000003269469127392     -0.0000002001759248547     -0.0000000000004428562 
    -0.0000000000008178396     0.0000001127762426990     0.0000001830066471191     0.0000001917166732073     0.0000001512963806882     0.0000000924287432989     0.0000000384435559068     -0.0000000039876662228     -0.0000000304936359951     -0.0000000424644454994     -0.0000000437871439386     -0.0000000383690341650     -0.0000000294442198270     -0.0000000196891232422     -0.0000000111519311255     -0.0000000047673901036     -0.0000000000012346840     0.0000000047650500139     0.0000000111499398473     0.0000000196875978230     0.0000000294431456096     0.0000000383682699585     0.0000000437864501583     0.0000000424635285475     0.0000000304922123205     0.0000000039855457604     -0.0000000384463905562     -0.0000000924320902783     -0.0000001512997615875     -0.0000001917196506133     -0.0000001830090141199     -0.0000001127780836908     -0.0000000000008178396 
    -0.0000000000008792873     0.0000000557809176249     0.0000000905271742170     0.0000000956907032288     0.0000000781830767950     0.0000000494246743055     0.0000000190592415230     -0.0000000045430431807     -0.0000000180185771554     -0.0000000218201457183     -0.0000000183072821369     -0.0000000104994354695     -0.0000000016103784853     0.0000000052610088552     0.0000000078202789676     0.0000000055160849972     -0.0000000000010337037     -0.0000000055180263922     -0.0000000078218868683     -0.0000000052621907162     0.0000000016095743262     0.0000000104988384888     0.0000000183066442987     0.0000000218191950137     0.0000000180170774755     0.0000000045408632262     -0.0000000190620648688     -0.0000000494279174097     -0.0000000781863922955     -0.0000000956936998970     -0.0000000905296184116     -0.0000000557828700445     -0.0000000000008792873 
    -0.0000000000005759538     0.0000000250036081261     0.0000000413063411061     0.0000000444074117461     0.0000000356231148101     0.0000000205123609305     0.0000000056539908319     -0.0000000040316464398     -0.0000000062952939973     -0.0000000012544720801     0.0000000092558275533     0.0000000220905780380     0.0000000331128909309     0.0000000379691790842     0.0000000335749963605     0.0000000197689924712     -0.0000000000007240749     -0.0000000197703292405     -0.0000000335760454491     -0.0000000379698831937     -0.0000000331133340507     -0.0000000220909545202     -0.0000000092563806204     0.0000000012535145705     0.0000000062937742885     0.0000000040295240908     -0.0000000056566042417     -0.0000000205152047359     -0.0000000356258469116     -0.0000000444097327852     -0.0000000413081190383     -0.0000000250049352319     -0.0000000000005759538 
    -0.0000000000000982369     0.0000000090697114980     0.0000000141693457094     0.0000000134307395616     0.0000000079194029270     0.0000000008905170085     -0.0000000037850543019     -0.0000000029973616868     0.0000000049116973793     0.0000000199191314389     0.0000000400966603961     0.0000000613160478928     0.0000000774141369822     0.0000000815606097686     0.0000000689487903889     0.0000000396934826594     -0.0000000000003520332     -0.0000000396940997092     -0.0000000689491903227     -0.0000000815607752561     -0.0000000774141825221     -0.0000000613161812361     -0.0000000400971083758     -0.0000000199200664168     -0.0000000049131876776     0.0000000029953756451     0.0000000037827614991     -0.0000000008928273328     -0.0000000079214130715     -0.0000000134322077134     -0.0000000141702005557     -0.0000000090700879371     -0.0000000000000982369 
    0.0000000000002915256     -0.0000000005101069989     -0.0000000024649815118     -0.0000000061924938446     -0.0000000104730277618     -0.0000000129285812721     -0.0000000108121989358     -0.0000000017021102872     0.0000000160027746856     0.0000000424748194149     0.0000000754500137623     0.0000001091237111148     0.0000001340411744345     0.0000001392555084490     0.0000001168816355314     0.0000000670594217954     0.0000000000000112253     -0.0000000670593419641     -0.0000001168814212175     -0.0000001392551798856     -0.0000001340408648880     -0.0000001091236262973     -0.0000000754503530354     -0.0000000424756985180     -0.0000000160041819023     0.0000000017003181346     0.0000000108102695839     0.0000000129268155238     0.0000000104717061902     0.0000000061917947040     0.0000000024649185667     0.0000000005105161844     0.0000000000002915256 
    0.0000000000005373743     -0.0000000064218730593     -0.0000000129968795657     -0.0000000191458275399     -0.0000000233094855823     -0.0000000232224830959     -0.0000000163540483419     -0.0000000002222524117     0.0000000272476683939     0.0000000667691984951     0.0000001157999440361     0.0000001663365148286     0.0000002043012638550     0.0000002127206586310     0.0000001807098176849     0.0000001056107086068     0.0000000000002673504     -0.0000001056101340570     -0.0000001807091625551     -0.0000002127199850057     -0.0000002043007208575     -0.0000001663362874976     -0.0000001158001930213     -0.0000000667699883318     -0.0000000272489312455     0.0000000002207079210     0.0000000163524937922     0.0000000232212072475     0.0000000233087244322     0.0000000191457025979     0.0000000129973626964     0.0000000064227906100     0.0000000000005373743 
    0.0000000000006374513     -0.0000000102611388982     -0.0000000200227435369     -0.0000000281537570564     -0.0000000327124645368     -0.0000000311979980329     -0.0000000208249602913     0.0000000014220748943     0.0000000385534359883     0.0000000922601479391     0.0000001599606262047     0.0000002311451677912     0.0000002862247645757     0.0000003098352778530     0.0000002733288919117     0.0000001622610333273     0.0000000000003435051     -0.0000001622603186431     -0.0000002733281244842     -0.0000003098345125845     -0.0000002862241543189     -0.0000002311449015646     -0.0000001599608178308     -0.0000000922608198882     -0.0000000385544938768     -0.0000000014233210802     0.0000000208237813680     0.0000000311971385510     0.0000000327121122459     0.0000000281539899674     0.0000000200235124038     0.0000000102622806195     0.0000000000006374513 
    0.0000000000006117170     -0.0000000128558800697     -0.0000000248758691787     -0.0000000345809682972     -0.0000000396844933747     -0.0000000373432252164     -0.0000000243255072168     0.0000000031548749482     0.0000000493298502773     0.0000001171988641573     0.0000002044135804383     0.0000002979420679733     0.0000003842689376209     0.0000004313222987127     0.0000003856065067950     0.0000002298690805069     0.0000000000002942797     -0.0000002298684755025     -0.0000003856058737013     -0.0000004313216807337     -0.0000003842684431321     -0.0000002979418517414     -0.0000002044137412199     -0.0000001171993950004     -0.0000000493306576163     -0.0000000031557904974     0.0000000243246904317     0.0000000373427038262     0.0000000396844058904     0.0000000345813625392     0.0000000248766937304     0.0000000128569991558     0.0000000000006117170 
    0.0000000000004802909     -0.0000000145833388902     -0.0000000281519662471     -0.0000000390078948460     -0.0000000445992226396     -0.0000000417683803117     -0.0000000268329381467     0.0000000047722432117     0.0000000585053796684     0.0000001387177057011     0.0000002434556933007     0.0000003609931733365     0.0000004845595610490     0.0000005515050698789     0.0000004947667483413     0.0000002950409842785     0.0000000000001922493     -0.0000002950405922853     -0.0000004947663467137     -0.0000005515046882767     -0.0000004845592646283     -0.0000003609930515901     -0.0000002434558240169     -0.0000001387180750999     -0.0000000585059154330     -0.0000000047728278914     0.0000000268324450127     0.0000000417681102272     0.0000000445992659381     0.0000000390082789190     0.0000000281526508452     0.0000000145842274975     0.0000000000004802909 
    0.0000000000002647874     -0.0000000155908601658     -0.0000000300758978960     -0.0000000416338890803     -0.0000000475482045422     -0.0000000444484498042     -0.0000000283269904662     0.0000000059549724798     0.0000000647648786738     0.0000001534760248540     0.0000002704953634275     0.0000004099278273313     0.0000005597999785143     0.0000006400903554960     0.0000005744833216935     0.0000003424163602246     0.0000000000000893574     -0.0000003424161792877     -0.0000005744831399183     -0.0000006400901880073     -0.0000005597998545788     -0.0000004099277852968     -0.0000002704954406528     -0.0000001534762150846     -0.0000000647651430931     -0.0000000059552521014     0.0000000283267651763     0.0000000444483438004     0.0000000475482621374     0.0000000416341228117     0.0000000300762861188     0.0000000155913529213     0.0000000000002647874 
    0.0000000000000000000     -0.0000000159240447770     -0.0000000307135514573     -0.0000000425073858122     -0.0000000485333018107     -0.0000000453462648305     -0.0000000288207454258     0.0000000063928081765     0.0000000669974761501     0.0000001587474658860     0.0000002801943415380     0.0000004283769754526     0.0000005877331526016     0.0000006727241863982     0.0000006037301691080     0.0000003597626249491     -0.0000000000000000000     -0.0000003597626249491     -0.0000006037301691080     -0.0000006727241863982     -0.0000005877331526016     -0.0000004283769754526     -0.0000002801943415380     -0.0000001587474658860     -0.0000000669974761501     -0.0000000063928081765     0.0000000288207454258     0.0000000453462648305     0.0000000485333018107     0.0000000425073858122     0.0000000307135514573     0.0000000159240447770     0.0000000000000000000 
    -0.0000000000002647874     -0.0000000155913529213     -0.0000000300762861188     -0.0000000416341228117     -0.0000000475482621374     -0.0000000444483438004     -0.0000000283267651763     0.0000000059552521014     0.0000000647651430931     0.0000001534762150846     0.0000002704954406528     0.0000004099277852968     0.0000005597998545788     0.0000006400901880073     0.0000005744831399183     0.0000003424161792877     -0.0000000000000893574     -0.0000003424163602246     -0.0000005744833216935     -0.0000006400903554960     -0.0000005597999785143     -0.0000004099278273313     -0.0000002704953634275     -0.0000001534760248540     -0.0000000647648786738     -0.0000000059549724798     0.0000000283269904662     0.0000000444484498042     0.0000000475482045422     0.0000000416338890803     0.0000000300758978960     0.0000000155908601658     -0.0000000000002647874 
    -0.0000000000004802909     -0.0000000145842274975     -0.0000000281526508452     -0.0000000390082789190     -0.0000000445992659381     -0.0000000417681102272     -0.0000000268324450127     0.0000000047728278914     0.0000000585059154330     0.0000001387180750999     0.0000002434558240169     0.0000003609930515901     0.0000004845592646283     0.0000005515046882767     0.0000004947663467137     0.0000002950405922853     -0.0000000000001922493     -0.0000002950409842785     -0.0000004947667483413     -0.0000005515050698789     -0.0000004845595610490     -0.0000003609931733365     -0.0000002434556933007     -0.0000001387177057011     -0.0000000585053796684     -0.0000000047722432117     0.0000000268329381467     0.0000000417683803117     0.0000000445992226396     0.0000000390078948460     0.0000000281519662471     0.0000000145833388902     -0.0000000000004802909 
    -0.0000000000006117170     -0.0000000128569991558     -0.0000000248766937304     -0.0000000345813625392     -0.0000000396844058904     -0.0000000373427038262     -0.0000000243246904317     0.0000000031557904974     0.0000000493306576163     0.0000001171993950004     0.0000002044137412199     0.0000002979418517414     0.0000003842684431321     0.0000004313216807337     0.0000003856058737013     0.0000002298684755025     -0.0000000000002942797     -0.0000002298690805069     -0.0000003856065067950     -0.0000004313222987127     -0.0000003842689376209     -0.0000002979420679733     -0.0000002044135804383     -0.0000001171988641573     -0.0000000493298502773     -0.0000000031548749482     0.0000000243255072168     0.0000000373432252164     0.0000000396844933747     0.0000000345809682972     0.0000000248758691787     0.0000000128558800697     -0.0000000000006117170 
    -0.0000000000006374513     -0.0000000102622806195     -0.0000000200235124038     -0.0000000281539899674     -0.0000000327121122459     -0.0000000311971385510     -0.0000000208237813680     0.0000000014233210802     0.0000000385544938768     0.0000000922608198882     0.0000001599608178308     0.0000002311449015646     0.0000002862241543189     0.0000003098345125845     0.0000002733281244842     0.0000001622603186431     -0.0000000000003435051     -0.0000001622610333273     -0.0000002733288919117     -0.0000003098352778530     -0.0000002862247645757     -0.0000002311451677912     -0.0000001599606262047     -0.0000000922601479391     -0.0000000385534359883     -0.0000000014220748943     0.0000000208249602913     0.0000000311979980329     0.0000000327124645368     0.0000000281537570564     0.0000000200227435369     0.0000000102611388982     -0.0000000000006374513 
    -0.0000000000005373743     -0.0000000064227906100     -0.0000000129973626964     -0.0000000191457025979     -0.0000000233087244322     -0.0000000232212072475     -0.0000000163524937922     -0.0000000002207079210     0.0000000272489312455     0.0000000667699883318     0.0000001158001930213     0.0000001663362874976     0.0000002043007208575     0.0000002127199850057     0.0000001807091625551     0.0000001056101340570     -0.0000000000002673504     -0.0000001056107086068     -0.0000001807098176849     -0.0000002127206586310     -0.0000002043012638550     -0.0000001663365148286     -0.0000001157999440361     -0.0000000667691984951     -0.0000000272476683939     0.0000000002222524117     0.0000000163540483419     0.0000000232224830959     0.0000000233094855823     0.0000000191458275399     0.0000000129968795657     0.0000000064218730593     -0.0000000000005373743 
    -0.0000000000002915256     -0.0000000005105161844     -0.0000000024649185667     -0.0000000061917947040     -0.0000000104717061902     -0.0000000129268155238     -0.0000000108102695839     -0.0000000017003181346     0.0000000160041819023     0.0000000424756985180     0.0000000754503530354     0.0000001091236262973     0.0000001340408648880     0.0000001392551798856     0.0000001168814212175     0.0000000670593419641     -0.0000000000000112253     -0.0000000670594217954     -0.0000001168816355314     -0.0000001392555084490     -0.0000001340411744345     -0.0000001091237111148     -0.0000000754500137623     -0.0000000424748194149     -0.0000000160027746856     0.0000000017021102872     0.0000000108121989358     0.0000000129285812721     0.0000000104730277618     0.0000000061924938446     0.0000000024649815118     0.0000000005101069989     -0.0000000000002915256 
    0.0000000000000982369     0.0000000090700879371     0.0000000141702005557     0.0000000134322077134     0.0000000079214130715     0.0000000008928273328     -0.0000000037827614991     -0.0000000029953756451     0.0000000049131876776     0.0000000199200664168     0.0000000400971083758     0.0000000613161812361     0.0000000774141825221     0.0000000815607752561     0.0000000689491903227     0.0000000396940997092     0.0000000000003520332     -0.0000000396934826594     -0.0000000689487903889     -0.0000000815606097686     -0.0000000774141369822     -0.0000000613160478928     -0.0000000400966603961     -0.0000000199191314389     -0.0000000049116973793     0.0000000029973616868     0.0000000037850543019     -0.0000000008905170085     -0.0000000079194029270     -0.0000000134307395616     -0.0000000141693457094     -0.0000000090697114980     0.0000000000000982369 
    0.0000000000005759538     0.0000000250049352319     0.0000000413081190383     0.0000000444097327852     0.0000000356258469116     0.0000000205152047359     0.0000000056566042417     -0.0000000040295240908     -0.0000000062937742885     -0.0000000012535145705     0.0000000092563806204     0.0000000220909545202     0.0000000331133340507     0.0000000379698831937     0.0000000335760454491     0.0000000197703292405     0.0000000000007240749     -0.0000000197689924712     -0.0000000335749963605     -0.0000000379691790842     -0.0000000331128909309     -0.0000000220905780380     -0.0000000092558275533     0.0000000012544720801     0.0000000062952939973     0.0000000040316464398     -0.0000000056539908319     -0.0000000205123609305     -0.0000000356231148101     -0.0000000444074117461     -0.0000000413063411061     -0.0000000250036081261     0.0000000000005759538 
    0.0000000000008792873     0.0000000557828700445     0.0000000905296184116     0.0000000956936998970     0.0000000781863922955     0.0000000494279174097     0.0000000190620648688     -0.0000000045408632262     -0.0000000180170774755     -0.0000000218191950137     -0.0000000183066442987     -0.0000000104988384888     -0.0000000016095743262     0.0000000052621907162     0.0000000078218868683     0.0000000055180263922     0.0000000000010337037     -0.0000000055160849972     -0.0000000078202789676     -0.0000000052610088552     0.0000000016103784853     0.0000000104994354695     0.0000000183072821369     0.0000000218201457183     0.0000000180185771554     0.0000000045430431807     -0.0000000190592415230     -0.0000000494246743055     -0.0000000781830767950     -0.0000000956907032288     -0.0000000905271742170     -0.0000000557809176249     0.0000000000008792873 
    0.0000000000008178396     0.0000001127780836908     0.0000001830090141199     0.0000001917196506133     0.0000001512997615875     0.0000000924320902783     0.0000000384463905562     -0.0000000039855457604     -0.0000000304922123205     -0.0000000424635285475     -0.0000000437864501583     -0.0000000383682699585     -0.0000000294431456096     -0.0000000196875978230     -0.0000000111499398473     -0.0000000047650500139     0.0000000000012346840     0.0000000047673901036     0.0000000111519311255     0.0000000196891232422     0.0000000294442198270     0.0000000383690341650     0.0000000437871439386     0.0000000424644454994     0.0000000304936359951     0.0000000039876662228     -0.0000000384435559068     -0.0000000924287432989     -0.0000001512963806882     -0.0000001917166732073     -0.0000001830066471191     -0.0000001127762426990     0.0000000000008178396 
    0.0000000000004428562     0.0000002001759248547     0.0000003269469127392     0.0000003452344926238     0.0000002727980732067     0.0000001627128230934     0.0000000658911933341     -0.0000000016085502673     -0.0000000435092922123     -0.0000000633481882635     -0.0000000678084974104     -0.0000000627789436767     -0.0000000523068368150     -0.0000000391766614522     -0.0000000254480150379     -0.0000000123499272797     0.0000000000013098755     0.0000000123524248058     0.0000000254501775632     0.0000000391783615292     0.0000000523080629000     0.0000000627798059429     0.0000000678092124007     0.0000000633490411114     0.0000000435105712941     0.0000000016104605965     -0.0000000658886239742     -0.0000001627099337553     -0.0000002727953145087     -0.0000003452322263628     -0.0000003269452899976     -0.0000002001748341287     0.0000000000004428562 
    -0.0000000000000649704     0.0000003138851696426     0.0000005162025257685     0.0000005510928942942     0.0000004411209416180     0.0000002649784994974     0.0000001060132283077     0.0000000031753187387     -0.0000000562976831916     -0.0000000838478758681     -0.0000000901812126212     -0.0000000841478559239     -0.0000000712112635072     -0.0000000545710514748     -0.0000000363796776674     -0.0000000180367491619     0.0000000000012595313     0.0000000180391611539     0.0000000363817925559     0.0000000545727460608     0.0000000712125103807     0.0000000841487352878     0.0000000901819045566     0.0000000838486272329     0.0000000562987458281     -0.0000000031737652882     -0.0000001060112826055     -0.0000002649764972302     -0.0000004411192263859     -0.0000005510917200858     -0.0000005162019741753     -0.0000003138851117611     -0.0000000000000649704 
    -0.0000000000004708032     0.0000004398352890015     0.0000007273737246541     0.0000007839636450619     0.0000006360327725515     0.0000003882373105145     0.0000001577400319406     0.0000000098610836390     -0.0000000677001250144     -0.0000001025809077378     -0.0000001099352972862     -0.0000001021466884068     -0.0000000864184839223     -0.0000000664979373540     -0.0000000446256665018     -0.0000000222590485166     0.0000000000010887170     0.0000000222611400920     0.0000000446275176740     0.0000000664994424737     0.0000000864196105511     0.0000001021474899785     0.0000001099359085852     0.0000001025815163318     0.0000000677009188027     -0.0000000098600073698     -0.0000001577388541292     -0.0000003882362808214     -0.0000006360321131589     -0.0000007839634972626     -0.0000007273741080611     -0.0000004398360780407     -0.0000000000004708032 
    -0.0000000000005964061     0.0000005560227920194     0.0000009231519115760     0.0000010018753029128     0.0000008213344570197     0.0000005087383362053     0.0000002112168579030     0.0000000179431459807     -0.0000000765702350237     -0.0000001177510878491     -0.0000001256226400484     -0.0000001159814806700     -0.0000000977202687266     -0.0000000751165930270     -0.0000000504674754921     -0.0000000252160071836     0.0000000000008055803     0.0000000252175582800     0.0000000504688574000     0.0000000751177286126     0.0000000977211302088     0.0000001159820994242     0.0000001256231031906     0.0000001177515161999     0.0000000765707452336     -0.0000000179425445467     -0.0000002112163236293     -0.0000005087380274225     -0.0000008213344893806     -0.0000010018757309837     -0.0000009231527190934     -0.0000005560238802313     -0.0000000000005964061 
    -0.0000000000004021450     0.0000006383381733634     0.0000010622922406448     0.0000011576489284486     0.0000009551067089528     0.0000005972584778571     0.0000002519521289636     0.0000000250529475191     -0.0000000821250276603     -0.0000001276491194627     -0.0000001357628276546     -0.0000001247474233583     -0.0000001047273107347     -0.0000000803627483270     -0.0000000539778956182     -0.0000000269799517035     0.0000000000004297631     0.0000000269807802855     0.0000000539786367445     0.0000000803633613207     0.0000001047277797521     0.0000001247477625462     0.0000001357630789987     0.0000001276493405246     0.0000000821252718182     -0.0000000250527016023     -0.0000002519519682879     -0.0000005972584768999     -0.0000009551069112861     -0.0000011576493449492     -0.0000010622928519065     -0.0000006383389254943     -0.0000000000004021450 
    0.0000000000000000000     0.0000006681150842986     0.0000011127020690872     0.0000012142438292830     0.0000010039387049869     0.0000006298428318178     0.0000002672121482861     0.0000000279151443812     -0.0000000840813705490     -0.0000001310882349843     -0.0000001392741405525     -0.0000001277546418526     -0.0000001071058720477     -0.0000000821275985896     -0.0000000551515317905     -0.0000000275677718907     -0.0000000000000000000     0.0000000275677718907     0.0000000551515317905     0.0000000821275985896     0.0000001071058720477     0.0000001277546418526     0.0000001392741405525     0.0000001310882349843     0.0000000840813705490     -0.0000000279151443812     -0.0000002672121482861     -0.0000006298428318178     -0.0000010039387049869     -0.0000012142438292830     -0.0000011127020690872     -0.0000006681150842986     0.0000000000000000000 
    0.0000000000000000000     0.0000006878656470495     0.0000011254106798663     0.0000011808754838185     0.0000008954935262626     0.0000004453895852687     0.0000000371045210618     -0.0000001987524714233     -0.0000002584510131448     -0.0000002453473549484     -0.0000002178209939527     -0.0000001785522771054     -0.0000001388455982101     -0.0000001014953187791     -0.0000000663199807110     -0.0000000327139622138     -0.0000000000000000000     0.0000000327139622138     0.0000000663199807110     0.0000001014953187791     0.0000001388455982101     0.0000001785522771054     0.0000002178209939527     0.0000002453473549484     0.0000002584510131448     0.0000001987524714233     -0.0000000371045210618     -0.0000004453895852687     -0.0000008954935262626     -0.0000011808754838185     -0.0000011254106798663     -0.0000006878656470495     0.0000000000000000000 
    0.0000000000010070510     0.0000006572905036947     0.0000010741998336781     0.0000011247726545158     0.0000008496391415655     0.0000004186780486268     0.0000000299326933286     -0.0000001927653042787     -0.0000002484366794160     -0.0000002381712203520     -0.0000002118526946256     -0.0000001740765376758     -0.0000001356402278670     -0.0000000992776389674     -0.0000000649059904523     -0.0000000320203762390     -0.0000000000005200430     0.0000000320193629173     0.0000000649050524161     0.0000000992768099981     0.0000001356395187939     0.0000001740759322646     0.0000002118521539474     0.0000002381707000120     0.0000002484361983312     0.0000001927650086209     -0.0000000299326511450     -0.0000004186775658271     -0.0000008496381934572     -0.0000011247712833060     -0.0000010741981231567     -0.0000006572885689505     0.0000000000010070510 
    0.0000000000016700715     0.0000005726635469582     0.0000009327748618013     0.0000009704790086880     0.0000007244559238857     0.0000003469022738698     0.0000000120727062960     -0.0000001750056800862     -0.0000002208160328641     -0.0000002177839352588     -0.0000001948134856265     -0.0000001611759902891     -0.0000001262952414240     -0.0000000927443670013     -0.0000000607088253002     -0.0000000299524636251     -0.0000000000009866898     0.0000000299505420347     0.0000000607070486825     0.0000000927427984720     0.0000001262938982425     0.0000001611748359696     0.0000001948124369605     0.0000002177828926775     0.0000002208149784069     0.0000001750048545955     -0.0000000120730179775     -0.0000003469018516498     -0.0000007244546722552     -0.0000009704769572853     -0.0000009327721394572     -0.0000005726603695283     0.0000000000016700715 
    0.0000000000017697904     0.0000004529810430446     0.0000007336623894308     0.0000007550671370306     0.0000005523212667528     0.0000002514748378626     -0.0000000076701011163     -0.0000001468514510820     -0.0000001826620011611     -0.0000001873016589057     -0.0000001690347274901     -0.0000001412555892114     -0.0000001115231659833     -0.0000000821997644777     -0.0000000538341428271     -0.0000000265373707168     -0.0000000000013579512     0.0000000265347283511     0.0000000538317047322     0.0000000821976152789     0.0000001115213222845     0.0000001412539892674     0.0000001690332391019     0.0000001873001166355     0.0000001826602898759     0.0000001468497999298     0.0000000076688896180     -0.0000002514752614428     -0.0000005523206772160     -0.0000007550654745523     -0.0000007336597675527     -0.0000004529777475315     0.0000000000017697904 
    0.0000000000012979557     0.0000003229868946775     0.0000005188707684251     0.0000005257066109287     0.0000003734277960503     0.0000001577203121427     -0.0000000205117193663     -0.0000001124575176964     -0.0000001445254569231     -0.0000001509575820964     -0.0000001376080303995     -0.0000001161412423953     -0.0000000922121339888     -0.0000000679817309023     -0.0000000443633155083     -0.0000000217762218661     -0.0000000000016090152     0.0000000217730945177     0.0000000443604375152     0.0000000679791986856     0.0000000922099560411     0.0000001161393293191     0.0000001376062035602     0.0000001509556120097     0.0000001445231373172     0.0000001124549076954     0.0000000205092433929     -0.0000001577221884498     -0.0000003734286862207     -0.0000005257063096100     -0.0000005188693181308     -0.0000003229846066352     0.0000000000012979557 
    0.0000000000004669600     0.0000002054368350830     0.0000003264895266341     0.0000003240655061062     0.0000002216536362415     0.0000000848208127509     -0.0000000228143871526     -0.0000000796528856552     -0.0000001081748884096     -0.0000001129420410312     -0.0000001035044461902     -0.0000000875271818355     -0.0000000691065870827     -0.0000000502771274337     -0.0000000322456171063     -0.0000000155919969887     -0.0000000000017304361     0.0000000155886380049     0.0000000322425348764     0.0000000502744197226     0.0000000691042480646     0.0000000875250962626     0.0000001035024008101     0.0000001129397613030     0.0000001081721125567     0.0000000796494819483     0.0000000228106859695     -0.0000000848242620038     -0.0000002216562999351     -0.0000003240670247712     -0.0000003264898431721     -0.0000002054362407056     0.0000000000004669600 
    -0.0000000000003776006     0.0000001148910894824     0.0000001802199211939     0.0000001746540434053     0.0000001146899304876     0.0000000395622899377     -0.0000000183654332043     -0.0000000560042285191     -0.0000000741780239207     -0.0000000763624840134     -0.0000000688456324665     -0.0000000565288016802     -0.0000000425442517788     -0.0000000289597790727     -0.0000000171947402047     -0.0000000077758076473     -0.0000000000017223779     0.0000000077724685538     0.0000000171916840249     0.0000000289570944123     0.0000000425419140148     0.0000000565266746520     0.0000000688434859646     0.0000000763600295463     0.0000000741749832025     0.0000000560004344892     0.0000000183609684001     -0.0000000395668815354     -0.0000001146940183097     -0.0000001746571517675     -0.0000001802219004378     -0.0000001148921803135     -0.0000000000003776006 
    -0.0000000000009115459     0.0000000554399322327     0.0000000858329997413     0.0000000814578153007     0.0000000520108506420     0.0000000161309098410     -0.0000000152502790960     -0.0000000361027695992     -0.0000000444751137238     -0.0000000427284040051     -0.0000000345710630100     -0.0000000234689711668     -0.0000000123091849291     -0.0000000034761322123     0.0000000014005755366     0.0000000020648407117     -0.0000000000015915170     -0.0000000020679230141     -0.0000000014033926869     0.0000000034736499125     0.0000000123069913273     0.0000000234669150953     0.0000000345689150926     0.0000000427258948439     0.0000000444719950912     0.0000000360989041483     0.0000000152457300866     -0.0000000161358292818     -0.0000000520155262283     -0.0000000814617189791     -0.0000000858359240530     -0.0000000554420597683     -0.0000000000009115459 
    -0.0000000000009685169     0.0000000225649546219     0.0000000346619942145     0.0000000325508302382     0.0000000198964935800     0.0000000028076837664     -0.0000000119155319748     -0.0000000197124717752     -0.0000000193455848888     -0.0000000120882164258     -0.0000000005490108582     0.0000000120783160648     0.0000000223822883661     0.0000000272046130726     0.0000000245341639409     0.0000000145435483531     -0.0000000000013541641     -0.0000000145461697635     -0.0000000245365614857     -0.0000000272067435330     -0.0000000223842199249     -0.0000000120802091883     0.0000000005469413069     0.0000000120857456456     0.0000000193425328471     0.0000000197087729505     0.0000000119113006531     -0.0000000028121408157     -0.0000000199007589171     -0.0000000325545053846     -0.0000000346648623529     -0.0000000225671504493     -0.0000000000009685169 
    -0.0000000000005818822     0.0000000072024299048     0.0000000105620443034     0.0000000084238597445     0.0000000021400593100     -0.0000000048170494373     -0.0000000086282758196     -0.0000000066344441808     0.0000000020138496005     0.0000000163845571293     0.0000000339928720105     0.0000000510164415196     0.0000000627227169531     0.0000000644988571891     0.0000000535294700448     0.0000000304694736974     -0.0000000000010421504     -0.0000000304714920891     -0.0000000535313241004     -0.0000000645005338473     -0.0000000627243036500     -0.0000000510181017720     -0.0000000339947974328     -0.0000000163869149823     -0.0000000020167333575     0.0000000066310609438     0.0000000086245705783     0.0000000048133373133     -0.0000000021434081149     -0.0000000084265551034     -0.0000000105640002035     -0.0000000072038099402     -0.0000000000005818822 
    -0.0000000000001128689     -0.0000000005185586953     -0.0000000022124712141     -0.0000000052480222155     -0.0000000083983686472     -0.0000000094342511692     -0.0000000059421468415     0.0000000038912002962     0.0000000207312283156     0.0000000436830669692     0.0000000698794429693     0.0000000942314290969     0.0000001098693455843     0.0000001098066351632     0.0000000897178006779     0.0000000506652516708     -0.0000000000007033350     -0.0000000506666171530     -0.0000000897190698608     -0.0000001098078238431     -0.0000001098705536280     -0.0000000942328145843     -0.0000000698811684392     -0.0000000436852413646     -0.0000000207338628153     -0.0000000038941845341     0.0000000059390430455     0.0000000094313393311     0.0000000083959603852     0.0000000052463245171     0.0000000022115034617     0.0000000005181333041     -0.0000000000001128689 
    0.0000000000002173550     -0.0000000048383521139     -0.0000000095511244131     -0.0000000134522098759     -0.0000000151075949986     -0.0000000125762798302     -0.0000000038600226261     0.0000000126447719666     0.0000000376687275753     0.0000000703686742801     0.0000001073506252626     0.0000001418578947818     0.0000001640960996685     0.0000001636264120279     0.0000001336820812893     0.0000000755276419734     -0.0000000000003917051     -0.0000000755284083957     -0.0000001336828165693     -0.0000001636271547475     -0.0000001640969517291     -0.0000001418589975076     -0.0000001073521068660     -0.0000000703705927829     -0.0000000376710334910     -0.0000000126473015364     0.0000000038575230234     0.0000000125741001486     0.0000000151059862507     0.0000000134513073846     0.0000000095508992199     0.0000000048386114735     0.0000000000002173550 
    0.0000000000003888821     -0.0000000074123079897     -0.0000000140664115949     -0.0000000187591328913     -0.0000000197316499422     -0.0000000149027814689     -0.0000000022066278328     0.0000000201187834693     0.0000000531157061803     0.0000000961770101382     0.0000001454736327178     0.0000001924059163632     0.0000002236319149420     0.0000002242525124643     0.0000001841004594701     0.0000001043416489473     -0.0000000000001512183     -0.0000001043419542422     -0.0000001841007857616     -0.0000002242529115474     -0.0000002236324789323     -0.0000001924067580446     -0.0000001454748417039     -0.0000000961786050230     -0.0000000531176062376     -0.0000000201208115816     0.0000000022047122277     0.0000000149012273563     0.0000000197306506327     0.0000000187587716195     0.0000000140666357337     0.0000000074129399932     0.0000000000003888821 
    0.0000000000004235327     -0.0000000090548750746     -0.0000000170290794610     -0.0000000223855830229     -0.0000000230418002420     -0.0000000166364566191     -0.0000000008452327924     0.0000000264331564868     0.0000000667287768597     0.0000001198716791116     0.0000001817944428402     0.0000002421137928743     0.0000002836979017643     0.0000002866223978196     0.0000002368854590510     0.0000001359735152306     -0.0000000000000094039     -0.0000001359735451716     -0.0000002368855340545     -0.0000002866225779974     -0.0000002836982602190     -0.0000002421144066727     -0.0000001817953634072     -0.0000001198728993562     -0.0000000667302128742     -0.0000000264346534104     0.0000000008438714298     0.0000000166354235758     0.0000000230412354725     0.0000000223855360820     0.0000000170294959065     0.0000000090556093918     0.0000000000004235327 
    0.0000000000003505250     -0.0000000101191664140     -0.0000000189817975514     -0.0000000248325313104     -0.0000000253282004164     -0.0000000178379306706     0.0000000002434552903     0.0000000313889308696     0.0000000776577806371     0.0000001394030461890     0.0000002125016836774     0.0000002850832981263     0.0000003365734560262     0.0000003425927064406     0.0000002899778419393     0.0000001690468178381     0.0000000000000383162     -0.0000001690467533409     -0.0000002899778200012     -0.0000003425927742847     -0.0000003365736725394     -0.0000002850837066571     -0.0000002125023057632     -0.0000001394038643555     -0.0000000776587288167     -0.0000000313898990498     -0.0000000002443090090     0.0000000178373202036     0.0000000253279238281     0.0000000248326168355     0.0000000189822033399     0.0000000101197903486     0.0000000000003505250 
    0.0000000000001977393     -0.0000000107351525499     -0.0000000201202369128     -0.0000000262725939911     -0.0000000266833060702     -0.0000000185374488620     0.0000000009748508932     0.0000000346077328022     0.0000000848278935528     0.0000001524128761846     0.0000002332753320686     0.0000003145604399502     0.0000003732667845119     0.0000003850804048554     0.0000003310935821383     0.0000001943287664632     0.0000000000000308611     -0.0000001943287126228     -0.0000003310935543536     -0.0000003850804277174     -0.0000003732668892830     -0.0000003145606468330     -0.0000002332756464497     -0.0000001524132847271     -0.0000000848283605341     -0.0000000346082023246     -0.0000000009752559211     0.0000000185371720504     0.0000000266832018982     0.0000000262726755111     0.0000000201204819774     0.0000000107355087710     0.0000000000001977393 
    0.0000000000000000000     -0.0000000109388070109     -0.0000000204972368671     -0.0000000267505170943     -0.0000000271331655310     -0.0000000187657107157     0.0000000012358815194     0.0000000357299991721     0.0000000873361045995     0.0000001569947000477     0.0000002406446918945     0.0000003250872124171     0.0000003864437252031     0.0000004012586227400     0.0000003465633974184     0.0000002037903969299     -0.0000000000000000000     -0.0000002037903969299     -0.0000003465633974184     -0.0000004012586227400     -0.0000003864437252031     -0.0000003250872124171     -0.0000002406446918945     -0.0000001569947000477     -0.0000000873361045995     -0.0000000357299991721     -0.0000000012358815194     0.0000000187657107157     0.0000000271331655310     0.0000000267505170943     0.0000000204972368671     0.0000000109388070109     0.0000000000000000000 
    -0.0000000000001977393     -0.0000000107355087710     -0.0000000201204819774     -0.0000000262726755111     -0.0000000266832018982     -0.0000000185371720504     0.0000000009752559211     0.0000000346082023246     0.0000000848283605341     0.0000001524132847271     0.0000002332756464497     0.0000003145606468330     0.0000003732668892830     0.0000003850804277174     0.0000003310935543536     0.0000001943287126228     -0.0000000000000308611     -0.0000001943287664632     -0.0000003310935821383     -0.0000003850804048554     -0.0000003732667845119     -0.0000003145604399502     -0.0000002332753320686     -0.0000001524128761846     -0.0000000848278935528     -0.0000000346077328022     -0.0000000009748508932     0.0000000185374488620     0.0000000266833060702     0.0000000262725939911     0.0000000201202369128     0.0000000107351525499     -0.0000000000001977393 
    -0.0000000000003505250     -0.0000000101197903486     -0.0000000189822033399     -0.0000000248326168355     -0.0000000253279238281     -0.0000000178373202036     0.0000000002443090090     0.0000000313898990498     0.0000000776587288167     0.0000001394038643555     0.0000002125023057632     0.0000002850837066571     0.0000003365736725394     0.0000003425927742847     0.0000002899778200012     0.0000001690467533409     -0.0000000000000383162     -0.0000001690468178381     -0.0000002899778419393     -0.0000003425927064406     -0.0000003365734560262     -0.0000002850832981263     -0.0000002125016836774     -0.0000001394030461890     -0.0000000776577806371     -0.0000000313889308696     -0.0000000002434552903     0.0000000178379306706     0.0000000253282004164     0.0000000248325313104     0.0000000189817975514     0.0000000101191664140     -0.0000000000003505250 
    -0.0000000000004235327     -0.0000000090556093918     -0.0000000170294959065     -0.0000000223855360820     -0.0000000230412354725     -0.0000000166354235758     -0.0000000008438714298     0.0000000264346534104     0.0000000667302128742     0.0000001198728993562     0.0000001817953634072     0.0000002421144066727     0.0000002836982602190     0.0000002866225779974     0.0000002368855340545     0.0000001359735451716     0.0000000000000094039     -0.0000001359735152306     -0.0000002368854590510     -0.0000002866223978196     -0.0000002836979017643     -0.0000002421137928743     -0.0000001817944428402     -0.0000001198716791116     -0.0000000667287768597     -0.0000000264331564868     0.0000000008452327924     0.0000000166364566191     0.0000000230418002420     0.0000000223855830229     0.0000000170290794610     0.0000000090548750746     -0.0000000000004235327 
    -0.0000000000003888821     -0.0000000074129399932     -0.0000000140666357337     -0.0000000187587716195     -0.0000000197306506327     -0.0000000149012273563     -0.0000000022047122277     0.0000000201208115816     0.0000000531176062376     0.0000000961786050230     0.0000001454748417039     0.0000001924067580446     0.0000002236324789323     0.0000002242529115474     0.0000001841007857616     0.0000001043419542422     0.0000000000001512183     -0.0000001043416489473     -0.0000001841004594701     -0.0000002242525124643     -0.0000002236319149420     -0.0000001924059163632     -0.0000001454736327178     -0.0000000961770101382     -0.0000000531157061803     -0.0000000201187834693     0.0000000022066278328     0.0000000149027814689     0.0000000197316499422     0.0000000187591328913     0.0000000140664115949     0.0000000074123079897     -0.0000000000003888821 
    -0.0000000000002173550     -0.0000000048386114735     -0.0000000095508992199     -0.0000000134513073846     -0.0000000151059862507     -0.0000000125741001486     -0.0000000038575230234     0.0000000126473015364     0.0000000376710334910     0.0000000703705927829     0.0000001073521068660     0.0000001418589975076     0.0000001640969517291     0.0000001636271547475     0.0000001336828165693     0.0000000755284083957     0.0000000000003917051     -0.0000000755276419734     -0.0000001336820812893     -0.0000001636264120279     -0.0000001640960996685     -0.0000001418578947818     -0.0000001073506252626     -0.0000000703686742801     -0.0000000376687275753     -0.0000000126447719666     0.0000000038600226261     0.0000000125762798302     0.0000000151075949986     0.0000000134522098759     0.0000000095511244131     0.0000000048383521139     -0.0000000000002173550 
    0.0000000000001128689     -0.0000000005181333041     -0.0000000022115034617     -0.0000000052463245171     -0.0000000083959603852     -0.0000000094313393311     -0.0000000059390430455     0.0000000038941845341     0.0000000207338628153     0.0000000436852413646     0.0000000698811684392     0.0000000942328145843     0.0000001098705536280     0.0000001098078238431     0.0000000897190698608     0.0000000506666171530     0.0000000000007033350     -0.0000000506652516708     -0.0000000897178006779     -0.0000001098066351632     -0.0000001098693455843     -0.0000000942314290969     -0.0000000698794429693     -0.0000000436830669692     -0.0000000207312283156     -0.0000000038912002962     0.0000000059421468415     0.0000000094342511692     0.0000000083983686472     0.0000000052480222155     0.0000000022124712141     0.0000000005185586953     0.0000000000001128689 
    0.0000000000005818822     0.0000000072038099402     0.0000000105640002035     0.0000000084265551034     0.0000000021434081149     -0.0000000048133373133     -0.0000000086245705783     -0.0000000066310609438     0.0000000020167333575     0.0000000163869149823     0.0000000339947974328     0.0000000510181017720     0.0000000627243036500     0.0000000645005338473     0.0000000535313241004     0.0000000304714920891     0.0000000000010421504     -0.0000000304694736974     -0.0000000535294700448     -0.0000000644988571891     -0.0000000627227169531     -0.0000000510164415196     -0.0000000339928720105     -0.0000000163845571293     -0.0000000020138496005     0.0000000066344441808     0.0000000086282758196     0.0000000048170494373     -0.0000000021400593100     -0.0000000084238597445     -0.0000000105620443034     -0.0000000072024299048     0.0000000000005818822 
    0.0000000000009685169     0.0000000225671504493     0.0000000346648623529     0.0000000325545053846     0.0000000199007589171     0.0000000028121408157     -0.0000000119113006531     -0.0000000197087729505     -0.0000000193425328471     -0.0000000120857456456     -0.0000000005469413069     0.0000000120802091883     0.0000000223842199249     0.0000000272067435330     0.0000000245365614857     0.0000000145461697635     0.0000000000013541641     -0.0000000145435483531     -0.0000000245341639409     -0.0000000272046130726     -0.0000000223822883661     -0.0000000120783160648     0.0000000005490108582     0.0000000120882164258     0.0000000193455848888     0.0000000197124717752     0.0000000119155319748     -0.0000000028076837664     -0.0000000198964935800     -0.0000000325508302382     -0.0000000346619942145     -0.0000000225649546219     0.0000000000009685169 
    0.0000000000009115459     0.0000000554420597683     0.0000000858359240530     0.0000000814617189791     0.0000000520155262283     0.0000000161358292818     -0.0000000152457300866     -0.0000000360989041483     -0.0000000444719950912     -0.0000000427258948439     -0.0000000345689150926     -0.0000000234669150953     -0.0000000123069913273     -0.0000000034736499125     0.0000000014033926869     0.0000000020679230141     0.0000000000015915170     -0.0000000020648407117     -0.0000000014005755366     0.0000000034761322123     0.0000000123091849291     0.0000000234689711668     0.0000000345710630100     0.0000000427284040051     0.0000000444751137238     0.0000000361027695992     0.0000000152502790960     -0.0000000161309098410     -0.0000000520108506420     -0.0000000814578153007     -0.0000000858329997413     -0.0000000554399322327     0.0000000000009115459 
    0.0000000000003776006     0.0000001148921803135     0.0000001802219004378     0.0000001746571517675     0.0000001146940183097     0.0000000395668815354     -0.0000000183609684001     -0.0000000560004344892     -0.0000000741749832025     -0.0000000763600295463     -0.0000000688434859646     -0.0000000565266746520     -0.0000000425419140148     -0.0000000289570944123     -0.0000000171916840249     -0.0000000077724685538     0.0000000000017223779     0.0000000077758076473     0.0000000171947402047     0.0000000289597790727     0.0000000425442517788     0.0000000565288016802     0.0000000688456324665     0.0000000763624840134     0.0000000741780239207     0.0000000560042285191     0.0000000183654332043     -0.0000000395622899377     -0.0000001146899304876     -0.0000001746540434053     -0.0000001802199211939     -0.0000001148910894824     0.0000000000003776006 
    -0.0000000000004669600     0.0000002054362407056     0.0000003264898431721     0.0000003240670247712     0.0000002216562999351     0.0000000848242620038     -0.0000000228106859695     -0.0000000796494819483     -0.0000001081721125567     -0.0000001129397613030     -0.0000001035024008101     -0.0000000875250962626     -0.0000000691042480646     -0.0000000502744197226     -0.0000000322425348764     -0.0000000155886380049     0.0000000000017304361     0.0000000155919969887     0.0000000322456171063     0.0000000502771274337     0.0000000691065870827     0.0000000875271818355     0.0000001035044461902     0.0000001129420410312     0.0000001081748884096     0.0000000796528856552     0.0000000228143871526     -0.0000000848208127509     -0.0000002216536362415     -0.0000003240655061062     -0.0000003264895266341     -0.0000002054368350830     -0.0000000000004669600 
    -0.0000000000012979557     0.0000003229846066352     0.0000005188693181308     0.0000005257063096100     0.0000003734286862207     0.0000001577221884498     -0.0000000205092433929     -0.0000001124549076954     -0.0000001445231373172     -0.0000001509556120097     -0.0000001376062035602     -0.0000001161393293191     -0.0000000922099560411     -0.0000000679791986856     -0.0000000443604375152     -0.0000000217730945177     0.0000000000016090152     0.0000000217762218661     0.0000000443633155083     0.0000000679817309023     0.0000000922121339888     0.0000001161412423953     0.0000001376080303995     0.0000001509575820964     0.0000001445254569231     0.0000001124575176964     0.0000000205117193663     -0.0000001577203121427     -0.0000003734277960503     -0.0000005257066109287     -0.0000005188707684251     -0.0000003229868946775     -0.0000000000012979557 
    -0.0000000000017697904     0.0000004529777475315     0.0000007336597675527     0.0000007550654745523     0.0000005523206772160     0.0000002514752614428     -0.0000000076688896180     -0.0000001468497999298     -0.0000001826602898759     -0.0000001873001166355     -0.0000001690332391019     -0.0000001412539892674     -0.0000001115213222845     -0.0000000821976152789     -0.0000000538317047322     -0.0000000265347283511     0.0000000000013579512     0.0000000265373707168     0.0000000538341428271     0.0000000821997644777     0.0000001115231659833     0.0000001412555892114     0.0000001690347274901     0.0000001873016589057     0.0000001826620011611     0.0000001468514510820     0.0000000076701011163     -0.0000002514748378626     -0.0000005523212667528     -0.0000007550671370306     -0.0000007336623894308     -0.0000004529810430446     -0.0000000000017697904 
    -0.0000000000016700715     0.0000005726603695283     0.0000009327721394572     0.0000009704769572853     0.0000007244546722552     0.0000003469018516498     0.0000000120730179775     -0.0000001750048545955     -0.0000002208149784069     -0.0000002177828926775     -0.0000001948124369605     -0.0000001611748359696     -0.0000001262938982425     -0.0000000927427984720     -0.0000000607070486825     -0.0000000299505420347     0.0000000000009866898     0.0000000299524636251     0.0000000607088253002     0.0000000927443670013     0.0000001262952414240     0.0000001611759902891     0.0000001948134856265     0.0000002177839352588     0.0000002208160328641     0.0000001750056800862     -0.0000000120727062960     -0.0000003469022738698     -0.0000007244559238857     -0.0000009704790086880     -0.0000009327748618013     -0.0000005726635469582     -0.0000000000016700715 
    -0.0000000000010070510     0.0000006572885689505     0.0000010741981231567     0.0000011247712833060     0.0000008496381934572     0.0000004186775658271     0.0000000299326511450     -0.0000001927650086209     -0.0000002484361983312     -0.0000002381707000120     -0.0000002118521539474     -0.0000001740759322646     -0.0000001356395187939     -0.0000000992768099981     -0.0000000649050524161     -0.0000000320193629173     0.0000000000005200430     0.0000000320203762390     0.0000000649059904523     0.0000000992776389674     0.0000001356402278670     0.0000001740765376758     0.0000002118526946256     0.0000002381712203520     0.0000002484366794160     0.0000001927653042787     -0.0000000299326933286     -0.0000004186780486268     -0.0000008496391415655     -0.0000011247726545158     -0.0000010741998336781     -0.0000006572905036947     -0.0000000000010070510 
    0.0000000000000000000     0.0000006878656470495     0.0000011254106798663     0.0000011808754838185     0.0000008954935262626     0.0000004453895852687     0.0000000371045210618     -0.0000001987524714233     -0.0000002584510131448     -0.0000002453473549484     -0.0000002178209939527     -0.0000001785522771054     -0.0000001388455982101     -0.0000001014953187791     -0.0000000663199807110     -0.0000000327139622138     -0.0000000000000000000     0.0000000327139622138     0.0000000663199807110     0.0000001014953187791     0.0000001388455982101     0.0000001785522771054     0.0000002178209939527     0.0000002453473549484     0.0000002584510131448     0.0000001987524714233     -0.0000000371045210618     -0.0000004453895852687     -0.0000008954935262626     -0.0000011808754838185     -0.0000011254106798663     -0.0000006878656470495     0.0000000000000000000 
    0.0000000000000000000     0.0000005803562934814     0.0000009133402620570     0.0000008729416807294     0.0000005114750653512     0.0000000204136511516     -0.0000003808526453412     -0.0000005593452067024     -0.0000005212350736308     -0.0000003877454855309     -0.0000002986464848610     -0.0000002256582157069     -0.0000001650461763753     -0.0000001157304415019     -0.0000000737991525588     -0.0000000359781779177     0.0000000000000000000     0.0000000359781779177     0.0000000737991525588     0.0000001157304415019     0.0000001650461763753     0.0000002256582157069     0.0000002986464848610     0.0000003877454855309     0.0000005212350736308     0.0000005593452067024     0.0000003808526453412     -0.0000000204136511516     -0.0000005114750653512     -0.0000008729416807294     -0.0000009133402620570     -0.0000005803562934814     0.0000000000000000000 
    0.0000000000017613069     0.0000005534383976326     0.0000008691836239175     0.0000008269084821235     0.0000004782168440842     0.0000000080257882753     -0.0000003732207550941     -0.0000005395404067712     -0.0000004995880936999     -0.0000003727952829306     -0.0000002898453971669     -0.0000002196053156521     -0.0000001610225140304     -0.0000001131046246056     -0.0000000721874810335     -0.0000000352027943659     -0.0000000000006098620     0.0000000352015961282     0.0000000721863428809     0.0000001131035719998     0.0000001610215517590     0.0000002196044251452     0.0000002898445450721     0.0000003727944597055     0.0000004995874634637     0.0000005395402177647     0.0000003732212388034     -0.0000000080245068019     -0.0000004782147876716     -0.0000008269057862306     -0.0000008691804687007     -0.0000005534349671612     0.0000000000017613069 
    0.0000000000030547485     0.0000004790484908430     0.0000007476113544297     0.0000007011139446892     0.0000003887914431590     -0.0000000231065652406     -0.0000003491937902678     -0.0000004828227932125     -0.0000004392801306631     -0.0000003326964283455     -0.0000002649505639288     -0.0000002023460469580     -0.0000001494277044070     -0.0000001054585158564     -0.0000000674568544735     -0.0000000329159359019     -0.0000000000011674529     0.0000000329136424589     0.0000000674546761140     0.0000001054564989232     0.0000001494258533890     0.0000002023443190464     0.0000002649488833440     0.0000003326947403392     0.0000004392786787562     0.0000004828220198050     0.0000003491941325939     0.0000000231082996200     -0.0000003887882884229     -0.0000007011095537607     -0.0000007476060278183     -0.0000004790425806571     0.0000000000030547485 
    0.0000000000035465704     0.0000003742647641152     0.0000005776558501782     0.0000005279404144129     0.0000002698837197344     -0.0000000581299271222     -0.0000003070191296109     -0.0000003974481976918     -0.0000003534080880149     -0.0000002803755405555     -0.0000002279653026359     -0.0000001762438013614     -0.0000001314974711305     -0.0000000933809509366     -0.0000000598663310737     -0.0000000292138892207     -0.0000000000016274328     0.0000000292106928689     0.0000000598632953656     0.0000000933781356690     0.0000001314948734834     0.0000001762413482512     0.0000002279628667770     0.0000002803729959553     0.0000003534055978946     0.0000003974463068874     0.0000003070184273580     0.0000000581308642806     -0.0000002698809636536     -0.0000005279359435064     -0.0000005776499871995     -0.0000003742579895954     0.0000000000035465704 
    0.0000000000031477467     0.0000002613837897479     0.0000003966874237059     0.0000003480238635404     0.0000001534905594091     -0.0000000812060024921     -0.0000002479425432111     -0.0000002971251360074     -0.0000002610800112367     -0.0000002234361004016     -0.0000001840637834933     -0.0000001442976670657     -0.0000001087565435660     -0.0000000775607776571     -0.0000000496929707340     -0.0000000241891679203     -0.0000000000019581024     0.0000000241853231094     0.0000000496893194358     0.0000000775573851246     0.0000001087533945523     0.0000001442946577118     0.0000001840607360411     0.0000002234328178876     0.0000002610764522311     0.0000002971218010245     0.0000002479400982599     0.0000000812050621481     -0.0000001534896002284     -0.0000003480209225655     -0.0000003966827465440     -0.0000002613779201318     0.0000000000031477467 
    0.0000000000020616051     0.0000001608260129554     0.0000002381387615818     0.0000001961130999884     0.0000000645596236979     -0.0000000834514523853     -0.0000001789540125592     -0.0000001995256530288     -0.0000001834657284866     -0.0000001657115034686     -0.0000001380754645709     -0.0000001092481305986     -0.0000000825383074969     -0.0000000585383710407     -0.0000000371056238019     -0.0000000178759127568     -0.0000000000021451822     0.0000000178717013743     0.0000000371016236456     0.0000000585346457093     0.0000000825348279133     0.0000001092447689554     0.0000001380720068797     0.0000001657076960841     0.0000001834613713389     0.0000001995209765116     0.0000001789496836506     0.0000000834481987645     -0.0000000645611984412     -0.0000001961126914753     -0.0000002381364754416     -0.0000001608223798517     0.0000000000020616051 
    0.0000000000007204742     0.0000000853081447280     0.0000001218708230792     0.0000000908066600313     0.0000000130946958810     -0.0000000667778506415     -0.0000001125380199789     -0.0000001230680880140     -0.0000001245816034227     -0.0000001124002358537     -0.0000000933983119801     -0.0000000729948450896     -0.0000000537110635010     -0.0000000365891697255     -0.0000000221168795487     -0.0000000102313916475     -0.0000000000021903965     0.0000000102270911304     0.0000000221127908109     0.0000000365853487054     0.0000000537074687126     0.0000000729913358449     0.0000000933946603327     0.0000001123961635500     0.0000001245768638675     0.0000001230626059002     0.0000001125322902057     0.0000000667726450677     -0.0000000130986334967     -0.0000000908088449634     -0.0000001218712142265     -0.0000000853071982095     0.0000000000007204742 
    -0.0000000000003932339     0.0000000377246166832     0.0000000511357258047     0.0000000322346666862     -0.0000000062986712579     -0.0000000422657841358     -0.0000000634572959332     -0.0000000760171526226     -0.0000000756985227065     -0.0000000659429224185     -0.0000000516585318244     -0.0000000364616601966     -0.0000000226533518331     -0.0000000117414791035     -0.0000000046038696030     -0.0000000011465899330     -0.0000000000021067131     0.0000000011424512643     0.0000000045999252644     0.0000000117377721365     0.0000000226498303383     0.0000000364581808986     0.0000000516548745529     0.0000000659388215840     0.0000000756937364691     0.0000000760115731049     0.0000000634510786579     0.0000000422595971057     0.0000000062933052235     -0.0000000322386350694     -0.0000000511381493082     -0.0000000377258490400     -0.0000000000003932339 
    -0.0000000000009539799     0.0000000130804734315     0.0000000163169537376     0.0000000071554709384     -0.0000000087779056025     -0.0000000248527572168     -0.0000000374555606109     -0.0000000414508915838     -0.0000000369642188181     -0.0000000264309750775     -0.0000000130318818121     0.0000000001970438962     0.0000000106240287108     0.0000000161589464745     0.0000000156639408915     0.0000000095451887930     -0.0000000000019146744     -0.0000000095489551675     -0.0000000156675466248     -0.0000000161623657592     -0.0000000106273227536     -0.0000000002003522446     0.0000000130283616887     0.0000000264270202320     0.0000000369596398037     0.0000000414456228562     0.0000000374497495082     0.0000000248467838882     0.0000000087723918118     -0.0000000071599489808     -0.0000000163202024590     -0.0000000130827490300     -0.0000000000009539799 
    -0.0000000000008975157     0.0000000026081386660     0.0000000020672262140     -0.0000000026811467006     -0.0000000101750021950     -0.0000000169346128502     -0.0000000195665234817     -0.0000000161294916280     -0.0000000066085336357     0.0000000073753814266     0.0000000231033077644     0.0000000372402603687     0.0000000463121488577     0.0000000473864690282     0.0000000390080445101     0.0000000220660435941     -0.0000000000016420052     -0.0000000220692808382     -0.0000000390111659857     -0.0000000473894686230     -0.0000000463150962888     -0.0000000372432886573     -0.0000000231065849149     -0.0000000073790721243     0.0000000066043198330     0.0000000161247653474     0.0000000195614700929     0.0000000169295895965     0.0000000101704425864     0.0000000026773941239     -0.0000000020700511039     -0.0000000026102171609     -0.0000000000008975157 
    -0.0000000000004348942     -0.0000000019830876326     -0.0000000047039214908     -0.0000000080827001388     -0.0000000109250505891     -0.0000000112890113179     -0.0000000072379911745     0.0000000024232709674     0.0000000176642729533     0.0000000370052123972     0.0000000574967052626     0.0000000749492940855     0.0000000845797422520     0.0000000821961091910     0.0000000657488866714     0.0000000366446960501     -0.0000000000013238771     -0.0000000366473149584     -0.0000000657514385116     -0.0000000821986069273     -0.0000000845822616244     -0.0000000749519591576     -0.0000000574996531971     -0.0000000370085486856     -0.0000000176680256095     -0.0000000024273509082     0.0000000072338079027     0.0000000112850548901     0.0000000109216686590     0.0000000080801320278     0.0000000047021939394     0.0000000019819867891     -0.0000000000004348942 
    -0.0000000000000409863     -0.0000000042422201412     -0.0000000080976688172     -0.0000000108136905256     -0.0000000111558340579     -0.0000000075970275251     0.0000000013017104104     0.0000000164427088118     0.0000000377222629713     0.0000000635554718472     0.0000000904939549262     0.0000001132044787021     0.0000001251861987911     0.0000001204535046953     0.0000000958958383001     0.0000000533367000510     -0.0000000000009993123     -0.0000000533386866713     -0.0000000958978028121     -0.0000001204554750311     -0.0000001251882511108     -0.0000001132067231875     -0.0000000904964979626     -0.0000000635583689552     -0.0000000377254798442     -0.0000000164461026216     -0.0000000013050400124     0.0000000075940557551     0.0000000111534875106     0.0000000108121210589     0.0000000080968502779     0.0000000042419420088     -0.0000000000000409863 
    0.0000000000001907075     -0.0000000054456759886     -0.0000000099820286552     -0.0000000124463568140     -0.0000000113800650287     -0.0000000052139127415     0.0000000074336665637     0.0000000274145166754     0.0000000546149800101     0.0000000873497584621     0.0000001216745316974     0.0000001510325107081     0.0000001669075736079     0.0000001609919506942     0.0000001285715689743     0.0000000716808013640     -0.0000000000007029794     -0.0000000716822087832     -0.0000001285729893165     -0.0000001609934200632     -0.0000001669091606868     -0.0000001510343047093     -0.0000001216766080651     -0.0000000873521364086     -0.0000000546175920757     -0.0000000274172036822     -0.0000000074362016075     0.0000000052117746340     0.0000000113785220984     0.0000000124454996370     0.0000000099818054674     0.0000000054458977273     0.0000000000001907075 
    0.0000000000002751294     -0.0000000061713936859     -0.0000000111709231625     -0.0000000135637951568     -0.0000000116350334941     -0.0000000036227174213     0.0000000119644320014     0.0000000360464179185     0.0000000685848001127     0.0000001079004725829     0.0000001496916657126     0.0000001862666442082     0.0000002070044796180     0.0000002009577794787     0.0000001613950224487     0.0000000903196021684     -0.0000000000004567589     -0.0000000903205254925     -0.0000001613959792481     -0.0000002009588060897     -0.0000002070056299747     -0.0000001862679811227     -0.0000001496932351614     -0.0000001079022717838     -0.0000000685867565568     -0.0000000360483906342     -0.0000000119662362703     0.0000000036212680504     0.0000000116340788614     0.0000000135633880188     0.0000000111710098853     0.0000000061718221039     0.0000000000002751294 
    0.0000000000002480328     -0.0000000066382378008     -0.0000000119578383996     -0.0000000143400893446     -0.0000000118554517178     -0.0000000025459696955     0.0000000152191835210     0.0000000424670247037     0.0000000792861889986     0.0000001240967005783     0.0000001724026149774     0.0000002156024599009     0.0000002411902393499     0.0000002356968492899     0.0000001903323061460     0.0000001068932974560     -0.0000000000002658487     -0.0000001068938410592     -0.0000001903328865560     -0.0000002356974955884     -0.0000002411909869577     -0.0000002156033453734     -0.0000001724036605657     -0.0000001240978948737     -0.0000000792874747327     -0.0000000424683012343     -0.0000000152203246075     0.0000000025450874869     0.0000000118549176602     0.0000000143399333438     0.0000000119580197896     0.0000000066386513004     0.0000000000002480328 
    0.0000000000001443621     -0.0000000069123822874     -0.0000000124248331916     -0.0000000148086431275     -0.0000000119962108031     -0.0000000018955612611     0.0000000172274524653     0.0000000464891975156     0.0000000860939421813     0.0000001345758038027     0.0000001873635974100     0.0000002352716391848     0.0000002644758181674     0.0000002596651882025     0.0000002104851362933     0.0000001185009708905     -0.0000000000001203405     -0.0000001185012194763     -0.0000002104854085070     -0.0000002596655001328     -0.0000002644761868118     -0.0000002352720801717     -0.0000001873641183187     -0.0000001345763956659     -0.0000000860945741695     -0.0000000464898184117     -0.0000000172279993638     0.0000000018951491675     0.0000000119959770092     0.0000000148086015426     0.0000000124249626079     0.0000000069126292188     0.0000000000001443621 
    0.0000000000000000000     -0.0000000070042237522     -0.0000000125814847424     -0.0000000149661942479     -0.0000000120435195377     -0.0000000016747471186     0.0000000179115914439     0.0000000478661449884     0.0000000884393915406     0.0000001382144187626     0.0000001926038664076     0.0000002422212818917     0.0000002727679701953     0.0000002682550335867     0.0000002177409854199     0.0000001226918277249     0.0000000000000000000     -0.0000001226918277249     -0.0000002177409854199     -0.0000002682550335867     -0.0000002727679701953     -0.0000002422212818917     -0.0000001926038664076     -0.0000001382144187626     -0.0000000884393915406     -0.0000000478661449884     -0.0000000179115914439     0.0000000016747471186     0.0000000120435195377     0.0000000149661942479     0.0000000125814847424     0.0000000070042237522     0.0000000000000000000 
    -0.0000000000001443621     -0.0000000069126292188     -0.0000000124249626079     -0.0000000148086015426     -0.0000000119959770092     -0.0000000018951491675     0.0000000172279993638     0.0000000464898184117     0.0000000860945741695     0.0000001345763956659     0.0000001873641183187     0.0000002352720801717     0.0000002644761868118     0.0000002596655001328     0.0000002104854085070     0.0000001185012194763     0.0000000000001203405     -0.0000001185009708905     -0.0000002104851362933     -0.0000002596651882025     -0.0000002644758181674     -0.0000002352716391848     -0.0000001873635974100     -0.0000001345758038027     -0.0000000860939421813     -0.0000000464891975156     -0.0000000172274524653     0.0000000018955612611     0.0000000119962108031     0.0000000148086431275     0.0000000124248331916     0.0000000069123822874     -0.0000000000001443621 
    -0.0000000000002480328     -0.0000000066386513004     -0.0000000119580197896     -0.0000000143399333438     -0.0000000118549176602     -0.0000000025450874869     0.0000000152203246075     0.0000000424683012343     0.0000000792874747327     0.0000001240978948737     0.0000001724036605657     0.0000002156033453734     0.0000002411909869577     0.0000002356974955884     0.0000001903328865560     0.0000001068938410592     0.0000000000002658487     -0.0000001068932974560     -0.0000001903323061460     -0.0000002356968492899     -0.0000002411902393499     -0.0000002156024599009     -0.0000001724026149774     -0.0000001240967005783     -0.0000000792861889986     -0.0000000424670247037     -0.0000000152191835210     0.0000000025459696955     0.0000000118554517178     0.0000000143400893446     0.0000000119578383996     0.0000000066382378008     -0.0000000000002480328 
    -0.0000000000002751294     -0.0000000061718221039     -0.0000000111710098853     -0.0000000135633880188     -0.0000000116340788614     -0.0000000036212680504     0.0000000119662362703     0.0000000360483906342     0.0000000685867565568     0.0000001079022717838     0.0000001496932351614     0.0000001862679811227     0.0000002070056299747     0.0000002009588060897     0.0000001613959792481     0.0000000903205254925     0.0000000000004567589     -0.0000000903196021684     -0.0000001613950224487     -0.0000002009577794787     -0.0000002070044796180     -0.0000001862666442082     -0.0000001496916657126     -0.0000001079004725829     -0.0000000685848001127     -0.0000000360464179185     -0.0000000119644320014     0.0000000036227174213     0.0000000116350334941     0.0000000135637951568     0.0000000111709231625     0.0000000061713936859     -0.0000000000002751294 
    -0.0000000000001907075     -0.0000000054458977273     -0.0000000099818054674     -0.0000000124454996370     -0.0000000113785220984     -0.0000000052117746340     0.0000000074362016075     0.0000000274172036822     0.0000000546175920757     0.0000000873521364086     0.0000001216766080651     0.0000001510343047093     0.0000001669091606868     0.0000001609934200632     0.0000001285729893165     0.0000000716822087832     0.0000000000007029794     -0.0000000716808013640     -0.0000001285715689743     -0.0000001609919506942     -0.0000001669075736079     -0.0000001510325107081     -0.0000001216745316974     -0.0000000873497584621     -0.0000000546149800101     -0.0000000274145166754     -0.0000000074336665637     0.0000000052139127415     0.0000000113800650287     0.0000000124463568140     0.0000000099820286552     0.0000000054456759886     -0.0000000000001907075 
    0.0000000000000409863     -0.0000000042419420088     -0.0000000080968502779     -0.0000000108121210589     -0.0000000111534875106     -0.0000000075940557551     0.0000000013050400124     0.0000000164461026216     0.0000000377254798442     0.0000000635583689552     0.0000000904964979626     0.0000001132067231875     0.0000001251882511108     0.0000001204554750311     0.0000000958978028121     0.0000000533386866713     0.0000000000009993123     -0.0000000533367000510     -0.0000000958958383001     -0.0000001204535046953     -0.0000001251861987911     -0.0000001132044787021     -0.0000000904939549262     -0.0000000635554718472     -0.0000000377222629713     -0.0000000164427088118     -0.0000000013017104104     0.0000000075970275251     0.0000000111558340579     0.0000000108136905256     0.0000000080976688172     0.0000000042422201412     0.0000000000000409863 
    0.0000000000004348942     -0.0000000019819867891     -0.0000000047021939394     -0.0000000080801320278     -0.0000000109216686590     -0.0000000112850548901     -0.0000000072338079027     0.0000000024273509082     0.0000000176680256095     0.0000000370085486856     0.0000000574996531971     0.0000000749519591576     0.0000000845822616244     0.0000000821986069273     0.0000000657514385116     0.0000000366473149584     0.0000000000013238771     -0.0000000366446960501     -0.0000000657488866714     -0.0000000821961091910     -0.0000000845797422520     -0.0000000749492940855     -0.0000000574967052626     -0.0000000370052123972     -0.0000000176642729533     -0.0000000024232709674     0.0000000072379911745     0.0000000112890113179     0.0000000109250505891     0.0000000080827001388     0.0000000047039214908     0.0000000019830876326     0.0000000000004348942 
    0.0000000000008975157     0.0000000026102171609     0.0000000020700511039     -0.0000000026773941239     -0.0000000101704425864     -0.0000000169295895965     -0.0000000195614700929     -0.0000000161247653474     -0.0000000066043198330     0.0000000073790721243     0.0000000231065849149     0.0000000372432886573     0.0000000463150962888     0.0000000473894686230     0.0000000390111659857     0.0000000220692808382     0.0000000000016420052     -0.0000000220660435941     -0.0000000390080445101     -0.0000000473864690282     -0.0000000463121488577     -0.0000000372402603687     -0.0000000231033077644     -0.0000000073753814266     0.0000000066085336357     0.0000000161294916280     0.0000000195665234817     0.0000000169346128502     0.0000000101750021950     0.0000000026811467006     -0.0000000020672262140     -0.0000000026081386660     0.0000000000008975157 
    0.0000000000009539799     0.0000000130827490300     0.0000000163202024590     0.0000000071599489808     -0.0000000087723918118     -0.0000000248467838882     -0.0000000374497495082     -0.0000000414456228562     -0.0000000369596398037     -0.0000000264270202320     -0.0000000130283616887     0.0000000002003522446     0.0000000106273227536     0.0000000161623657592     0.0000000156675466248     0.0000000095489551675     0.0000000000019146744     -0.0000000095451887930     -0.0000000156639408915     -0.0000000161589464745     -0.0000000106240287108     -0.0000000001970438962     0.0000000130318818121     0.0000000264309750775     0.0000000369642188181     0.0000000414508915838     0.0000000374555606109     0.0000000248527572168     0.0000000087779056025     -0.0000000071554709384     -0.0000000163169537376     -0.0000000130804734315     0.0000000000009539799 
    0.0000000000003932339     0.0000000377258490400     0.0000000511381493082     0.0000000322386350694     -0.0000000062933052235     -0.0000000422595971057     -0.0000000634510786579     -0.0000000760115731049     -0.0000000756937364691     -0.0000000659388215840     -0.0000000516548745529     -0.0000000364581808986     -0.0000000226498303383     -0.0000000117377721365     -0.0000000045999252644     -0.0000000011424512643     0.0000000000021067131     0.0000000011465899330     0.0000000046038696030     0.0000000117414791035     0.0000000226533518331     0.0000000364616601966     0.0000000516585318244     0.0000000659429224185     0.0000000756985227065     0.0000000760171526226     0.0000000634572959332     0.0000000422657841358     0.0000000062986712579     -0.0000000322346666862     -0.0000000511357258047     -0.0000000377246166832     0.0000000000003932339 
    -0.0000000000007204742     0.0000000853071982095     0.0000001218712142265     0.0000000908088449634     0.0000000130986334967     -0.0000000667726450677     -0.0000001125322902057     -0.0000001230626059002     -0.0000001245768638675     -0.0000001123961635500     -0.0000000933946603327     -0.0000000729913358449     -0.0000000537074687126     -0.0000000365853487054     -0.0000000221127908109     -0.0000000102270911304     0.0000000000021903965     0.0000000102313916475     0.0000000221168795487     0.0000000365891697255     0.0000000537110635010     0.0000000729948450896     0.0000000933983119801     0.0000001124002358537     0.0000001245816034227     0.0000001230680880140     0.0000001125380199789     0.0000000667778506415     -0.0000000130946958810     -0.0000000908066600313     -0.0000001218708230792     -0.0000000853081447280     -0.0000000000007204742 
    -0.0000000000020616051     0.0000001608223798517     0.0000002381364754416     0.0000001961126914753     0.0000000645611984412     -0.0000000834481987645     -0.0000001789496836506     -0.0000001995209765116     -0.0000001834613713389     -0.0000001657076960841     -0.0000001380720068797     -0.0000001092447689554     -0.0000000825348279133     -0.0000000585346457093     -0.0000000371016236456     -0.0000000178717013743     0.0000000000021451822     0.0000000178759127568     0.0000000371056238019     0.0000000585383710407     0.0000000825383074969     0.0000001092481305986     0.0000001380754645709     0.0000001657115034686     0.0000001834657284866     0.0000001995256530288     0.0000001789540125592     0.0000000834514523853     -0.0000000645596236979     -0.0000001961130999884     -0.0000002381387615818     -0.0000001608260129554     -0.0000000000020616051 
    -0.0000000000031477467     0.0000002613779201318     0.0000003966827465440     0.0000003480209225655     0.0000001534896002284     -0.0000000812050621481     -0.0000002479400982599     -0.0000002971218010245     -0.0000002610764522311     -0.0000002234328178876     -0.0000001840607360411     -0.0000001442946577118     -0.0000001087533945523     -0.0000000775573851246     -0.0000000496893194358     -0.0000000241853231094     0.0000000000019581024     0.0000000241891679203     0.0000000496929707340     0.0000000775607776571     0.0000001087565435660     0.0000001442976670657     0.0000001840637834933     0.0000002234361004016     0.0000002610800112367     0.0000002971251360074     0.0000002479425432111     0.0000000812060024921     -0.0000001534905594091     -0.0000003480238635404     -0.0000003966874237059     -0.0000002613837897479     -0.0000000000031477467 
    -0.0000000000035465704     0.0000003742579895954     0.0000005776499871995     0.0000005279359435064     0.0000002698809636536     -0.0000000581308642806     -0.0000003070184273580     -0.0000003974463068874     -0.0000003534055978946     -0.0000002803729959553     -0.0000002279628667770     -0.0000001762413482512     -0.0000001314948734834     -0.0000000933781356690     -0.0000000598632953656     -0.0000000292106928689     0.0000000000016274328     0.0000000292138892207     0.0000000598663310737     0.0000000933809509366     0.0000001314974711305     0.0000001762438013614     0.0000002279653026359     0.0000002803755405555     0.0000003534080880149     0.0000003974481976918     0.0000003070191296109     0.0000000581299271222     -0.0000002698837197344     -0.0000005279404144129     -0.0000005776558501782     -0.0000003742647641152     -0.0000000000035465704 
    -0.0000000000030547485     0.0000004790425806571     0.0000007476060278183     0.0000007011095537607     0.0000003887882884229     -0.0000000231082996200     -0.0000003491941325939     -0.0000004828220198050     -0.0000004392786787562     -0.0000003326947403392     -0.0000002649488833440     -0.0000002023443190464     -0.0000001494258533890     -0.0000001054564989232     -0.0000000674546761140     -0.0000000329136424589     0.0000000000011674529     0.0000000329159359019     0.0000000674568544735     0.0000001054585158564     0.0000001494277044070     0.0000002023460469580     0.0000002649505639288     0.0000003326964283455     0.0000004392801306631     0.0000004828227932125     0.0000003491937902678     0.0000000231065652406     -0.0000003887914431590     -0.0000007011139446892     -0.0000007476113544297     -0.0000004790484908430     -0.0000000000030547485 
    -0.0000000000017613069     0.0000005534349671612     0.0000008691804687007     0.0000008269057862306     0.0000004782147876716     0.0000000080245068019     -0.0000003732212388034     -0.0000005395402177647     -0.0000004995874634637     -0.0000003727944597055     -0.0000002898445450721     -0.0000002196044251452     -0.0000001610215517590     -0.0000001131035719998     -0.0000000721863428809     -0.0000000352015961282     0.0000000000006098620     0.0000000352027943659     0.0000000721874810335     0.0000001131046246056     0.0000001610225140304     0.0000002196053156521     0.0000002898453971669     0.0000003727952829306     0.0000004995880936999     0.0000005395404067712     0.0000003732207550941     -0.0000000080257882753     -0.0000004782168440842     -0.0000008269084821235     -0.0000008691836239175     -0.0000005534383976326     -0.0000000000017613069 
    0.0000000000000000000     0.0000005803562934814     0.0000009133402620570     0.0000008729416807294     0.0000005114750653512     0.0000000204136511516     -0.0000003808526453412     -0.0000005593452067024     -0.0000005212350736308     -0.0000003877454855309     -0.0000002986464848610     -0.0000002256582157069     -0.0000001650461763753     -0.0000001157304415019     -0.0000000737991525588     -0.0000000359781779177     0.0000000000000000000     0.0000000359781779177     0.0000000737991525588     0.0000001157304415019     0.0000001650461763753     0.0000002256582157069     0.0000002986464848610     0.0000003877454855309     0.0000005212350736308     0.0000005593452067024     0.0000003808526453412     -0.0000000204136511516     -0.0000005114750653512     -0.0000008729416807294     -0.0000009133402620570     -0.0000005803562934814     0.0000000000000000000 
    0.0000000000000000000     0.0000003848437717886     0.0000005528284072206     0.0000003989306522335     -0.0000000163479824670     -0.0000005036116191380     -0.0000008523507092350     -0.0000009429624377905     -0.0000007962371543670     -0.0000005445209385845     -0.0000003589579531696     -0.0000002554242335252     -0.0000001777982328234     -0.0000001202989262903     -0.0000000750697696051     -0.0000000362143117522     0.0000000000000000000     0.0000000362143117522     0.0000000750697696051     0.0000001202989262903     0.0000001777982328234     0.0000002554242335252     0.0000003589579531696     0.0000005445209385845     0.0000007962371543670     0.0000009429624377905     0.0000008523507092350     0.0000005036116191380     0.0000000163479824670     -0.0000003989306522335     -0.0000005528284072206     -0.0000003848437717886     0.0000000000000000000 
    0.0000000000025295675     0.0000003645944320619     0.0000005208277932333     0.0000003686901535899     -0.0000000320977334117     -0.0000004984484508447     -0.0000008284852683593     -0.0000009092167505987     -0.0000007633888574673     -0.0000005210135207097     -0.0000003477098172390     -0.0000002481038509663     -0.0000001731797987455     -0.0000001174161128103     -0.0000000733545838741     -0.0000000354028433226     -0.0000000000006948050     0.0000000354014689962     0.0000000733532519006     0.0000001174148392130     0.0000001731785816066     0.0000002481026695650     0.0000003477086463746     0.0000005210124405126     0.0000007633881566416     0.0000009092167864726     0.0000008284863537224     0.0000004984507199802     0.0000000321010874414     -0.0000003686859771614     -0.0000005208230928925     -0.0000003645894569260     0.0000000000025295675 
    0.0000000000045054983     0.0000003089747176036     0.0000004335484603468     0.0000002875678678132     -0.0000000719045918611     -0.0000004798375871020     -0.0000007585259042005     -0.0000008131440862546     -0.0000006715040768606     -0.0000004567886672648     -0.0000003161237526934     -0.0000002274268270346     -0.0000001600211071155     -0.0000001091260533344     -0.0000000683851192079     -0.0000000330407044938     -0.0000000000013370404     0.0000000330380599111     0.0000000683825553426     0.0000001091235977487     0.0000001600187501350     0.0000002274245193370     0.0000003161214299208     0.0000004567864089266     0.0000006715023768527     0.0000008131435907173     0.0000007585272107726     0.0000004798410085503     0.0000000719100397061     -0.0000002875607939748     -0.0000004335402753635     -0.0000003089659069189     0.0000000000045054983 
    0.0000000000054962213     0.0000002317088303690     0.0000003140626350495     0.0000001804408155350     -0.0000001172287187681     -0.0000004410950455793     -0.0000006484288398310     -0.0000006697739739858     -0.0000005391651922971     -0.0000003690376191567     -0.0000002698660550282     -0.0000001967241593394     -0.0000001401052353296     -0.0000000963308843157     -0.0000000605972653571     -0.0000000293059217937     -0.0000000000018782524     0.0000000293022068137     0.0000000605936620389     0.0000000963274251472     0.0000001401018958890     0.0000001967208537828     0.0000002698626644053     0.0000003690341226664     0.0000005391621252906     0.0000006697721502385     0.0000006484290765586     0.0000004410978801008     0.0000001172342284823     -0.0000001804329756401     -0.0000003140530556660     -0.0000002316981924499     0.0000000000054962213 
    0.0000000000053127532     0.0000001505385650143     0.0000001915177743884     0.0000000773745429855     -0.0000001477285625634     -0.0000003780905318355     -0.0000005103212977490     -0.0000005021405538339     -0.0000003928569615304     -0.0000002812408399548     -0.0000002161092809619     -0.0000001601208242873     -0.0000001155797470274     -0.0000000800733000356     -0.0000000504693398140     -0.0000000243852762166     -0.0000000000022810864     0.0000000243807643284     0.0000000504649606406     0.0000000800690851717     0.0000001155756545283     0.0000001601167324856     0.0000002161050138682     0.0000002812362484380     0.0000003928523887928     0.0000005021368406958     0.0000005103193792230     0.0000003780911683133     0.0000001477321105013     -0.0000000773681994013     -0.0000001915091494466     -0.0000001505284548808     0.0000000000053127532 
    0.0000000000040992869     0.0000000812943333780     0.0000000908958982063     0.0000000019954238609     -0.0000001509128343603     -0.0000002944273509931     -0.0000003625653043870     -0.0000003373829122265     -0.0000002610762025165     -0.0000002067138657645     -0.0000001613558757545     -0.0000001212669892715     -0.0000000882768946474     -0.0000000611855726514     -0.0000000383459896007     -0.0000000183996219685     -0.0000000000025263548     0.0000000183946240924     0.0000000383411339873     0.0000000611808865258     0.0000000882723219274     0.0000001212623840869     0.0000001613510208190     0.0000002067085382769     0.0000002610703917825     0.0000003373773087151     0.0000003625608478443     0.0000002944249598055     0.0000001509131552218     -0.0000000019921997740     -0.0000000908901003222     -0.0000000812867655158     0.0000000000040992869 
    0.0000000000023231282     0.0000000330864061731     0.0000000252884186981     -0.0000000361898912731     -0.0000001270516325816     -0.0000002022219841003     -0.0000002267186431668     -0.0000002012911548651     -0.0000001676150217528     -0.0000001401094452083     -0.0000001100232966632     -0.0000000826246443536     -0.0000000594080828919     -0.0000000401846561140     -0.0000000244133953402     -0.0000000114015877079     -0.0000000000026148380     0.0000000113964125208     0.0000000244083594842     0.0000000401797808990     0.0000000594033052398     0.0000000826198115212     0.0000001100181773414     0.0000001401037767921     0.0000001676086137615     0.0000002012842559694     0.0000002267121074253     0.0000002022167868130     0.0000001270486231821     0.0000000361895276538     -0.0000000252862520002     -0.0000000330824209534     0.0000000000023231282 
    0.0000000000006059125     0.0000000067692829727     -0.0000000059415942306     -0.0000000423322996485     -0.0000000874787610800     -0.0000001183240878152     -0.0000001225380879348     -0.0000001130041687551     -0.0000001024451410361     -0.0000000842804985594     -0.0000000641461081823     -0.0000000454269873119     -0.0000000296454427316     -0.0000000173892682653     -0.0000000087972767782     -0.0000000034284565605     -0.0000000000025626324     0.0000000034233804900     0.0000000087923248293     0.0000000173844547578     0.0000000296407040126     0.0000000454221786982     0.0000000641410111330     0.0000000842748535741     0.0000001024387311672     0.0000001129969496050     0.0000001225305492398     0.0000001183171687820     0.0000000874733818604     0.0000000423290669851     0.0000000059405625134     -0.0000000067686758311     0.0000000000006059125 
    -0.0000000000005445453     -0.0000000030645604769     -0.0000000132142722002     -0.0000000307515279500     -0.0000000484793365897     -0.0000000586477139960     -0.0000000631713858630     -0.0000000621662343026     -0.0000000530401726516     -0.0000000391520771977     -0.0000000239321433986     -0.0000000100519182314     0.0000000006318509379     0.0000000069211444808     0.0000000083439004549     0.0000000054555502520     -0.0000000000023942147     -0.0000000054602987614     -0.0000000083485499594     -0.0000000069256892225     -0.0000000006363525957     0.0000000100473303262     0.0000000239272807797     0.0000000391467198012     0.0000000530341361199     0.0000000621594788583     0.0000000631641211724     0.0000000586405356540     0.0000000484731143390     0.0000000307468893990     0.0000000132113639942     0.0000000030629771876     -0.0000000000005445453 
    -0.0000000000009283263     -0.0000000043336068467     -0.0000000102781886564     -0.0000000175282969132     -0.0000000247110394785     -0.0000000307300782758     -0.0000000318066781546     -0.0000000268274405423     -0.0000000165164377330     -0.0000000029006890775     0.0000000113639277597     0.0000000235293285251     0.0000000311463596692     0.0000000324506970881     0.0000000268193497372     0.0000000151695959578     -0.0000000000021379545     -0.0000000151738432883     -0.0000000268235284196     -0.0000000324548115055     -0.0000000311504705290     -0.0000000235335498373     -0.0000000113684122055     0.0000000028957804671     0.0000000165109916615     0.0000000268214714824     0.0000000318003990302     0.0000000307239021410     0.0000000247054711550     0.0000000175238207328     0.0000000102749743716     0.0000000043313793320     -0.0000000000009283263 
    -0.0000000000006539369     -0.0000000041208653686     -0.0000000084445331700     -0.0000000126104019104     -0.0000000155101941504     -0.0000000155988194868     -0.0000000114965323943     -0.0000000025703817171     0.0000000107090600879     0.0000000266840015296     0.0000000426793442342     0.0000000554123569264     0.0000000616291988740     0.0000000589056070797     0.0000000464511546860     0.0000000256462822694     -0.0000000000018245686     -0.0000000256499140570     -0.0000000464547477961     -0.0000000589091761094     -0.0000000616328049271     -0.0000000554161014915     -0.0000000426833465230     -0.0000000266883618653     -0.0000000107138122198     0.0000000025653208978     0.0000000114913932484     0.0000000155939570678     0.0000000155059933414     0.0000000126071343412     0.0000000084422329531     0.0000000041192896331     -0.0000000000006539369 
    -0.0000000000002288139     -0.0000000042054042173     -0.0000000078146793532     -0.0000000100548410600     -0.0000000099280169472     -0.0000000063357392885     0.0000000016579494647     0.0000000144705955105     0.0000000316087054847     0.0000000513486911693     0.0000000706587215602     0.0000000855194351083     0.0000000917046531407     0.0000000859211052397     0.0000000670153366981     0.0000000367953261174     -0.0000000000014851938     -0.0000000367982886035     -0.0000000670182854628     -0.0000000859240626019     -0.0000000917076791461     -0.0000000855226193456     -0.0000000706621545519     -0.0000000513524234472     -0.0000000316127079218     -0.0000000144747342173     -0.0000000016619878669     0.0000000063321002153     0.0000000099250594998     0.0000000100527334658     0.0000000078134004820     0.0000000042047270275     -0.0000000000002288139 
    0.0000000000000451726     -0.0000000041456179494     -0.0000000073449223833     -0.0000000085613053452     -0.0000000066758474762     -0.0000000006070224545     0.0000000104855654545     0.0000000269117577732     0.0000000480702801221     0.0000000720521870262     0.0000000954160814888     0.0000001133823105616     0.0000001206414419451     0.0000001127779740603     0.0000000879790236146     0.0000000483430290273     -0.0000000000011468842     -0.0000000483453217283     -0.0000000879813200420     -0.0000001127802996565     -0.0000001206438509619     -0.0000001133848775383     -0.0000000954188718389     -0.0000000720552175026     -0.0000000480734878936     -0.0000000269149924856     -0.0000000104886091668     0.0000000006044100645     0.0000000066738670949     0.0000000085600548149     0.0000000073443537848     0.0000000041455333628     0.0000000000000451726 
    0.0000000000001667159     -0.0000000041168815467     -0.0000000071123157626     -0.0000000077617633689     -0.0000000047673567752     0.0000000030738909715     0.0000000166314249361     0.0000000361624259444     0.0000000609687258029     0.0000000889918502761     0.0000001164718020563     0.0000001379587101067     0.0000001470442431747     0.0000001380141524565     0.0000001081310980726     0.0000000596043264126     -0.0000000000008274653     -0.0000000596059842640     -0.0000001081327689207     -0.0000001380158597851     -0.0000001470460299315     -0.0000001379606315189     -0.0000001164739009393     -0.0000000889941249346     -0.0000000609711082825     -0.0000000361647827400     -0.0000000166335806066     -0.0000000030756670634     0.0000000047660973359     0.0000000077610764265     0.0000000071121512351     0.0000000041170832733     0.0000000000001667159 
    0.0000000000001731353     -0.0000000041277439456     -0.0000000070308933809     -0.0000000073502191878     -0.0000000036302129066     0.0000000054626359129     0.0000000208517092790     0.0000000427708968657     0.0000000704668927922     0.0000001018094541641     0.0000001328485819878     0.0000001576228634256     0.0000001687543132001     0.0000001592648638708     0.0000001254135758265     0.0000000693730114099     -0.0000000000005332294     -0.0000000693740819645     -0.0000001254146607881     -0.0000001592659807543     -0.0000001687554904108     -0.0000001576241353882     -0.0000001328499725049     -0.0000001018109551584     -0.0000000704684511162     -0.0000000427724173121     -0.0000000208530727983     -0.0000000054637262168     0.0000000036294814979     0.0000000073498780289     0.0000000070309049409     0.0000000041280017745     0.0000000000001731353 
    0.0000000000001051360     -0.0000000041507529840     -0.0000000070161218880     -0.0000000071534575232     -0.0000000030047778396     0.0000000068519202926     0.0000000233802557584     0.0000000468062075875     0.0000000763559734235     0.0000001098823449864     0.0000001433491847736     0.0000001704790613208     0.0000001832208838622     0.0000001736610958133     0.0000001372690597376     0.0000000761262353578     -0.0000000000002606026     -0.0000000761267593674     -0.0000001372695929311     -0.0000001736616474112     -0.0000001832214675559     -0.0000001704796929095     -0.0000001433498741452     -0.0000001098830859558     -0.0000000763567377080     -0.0000000468069468462     -0.0000000233809109347     -0.0000000068524346212     0.0000000030044456302     0.0000000071533220063     0.0000000070161637774     0.0000000041509187476     0.0000000000001051360 
    -0.0000000000000000000     -0.0000000041615764229     -0.0000000070168330410     -0.0000000070947246486     -0.0000000028022253801     0.0000000073131448600     0.0000000242292737754     0.0000000481706454121     0.0000000783594581223     0.0000001126484545025     0.0000001469789092750     0.0000001749671514205     0.0000001883204880285     0.0000001787786525740     0.0000001415100978805     0.0000000785514627923     0.0000000000000000000     -0.0000000785514627923     -0.0000001415100978805     -0.0000001787786525740     -0.0000001883204880285     -0.0000001749671514205     -0.0000001469789092750     -0.0000001126484545025     -0.0000000783594581223     -0.0000000481706454121     -0.0000000242292737754     -0.0000000073131448600     0.0000000028022253801     0.0000000070947246486     0.0000000070168330410     0.0000000041615764229     -0.0000000000000000000 
    -0.0000000000001051360     -0.0000000041509187476     -0.0000000070161637774     -0.0000000071533220063     -0.0000000030044456302     0.0000000068524346212     0.0000000233809109347     0.0000000468069468462     0.0000000763567377080     0.0000001098830859558     0.0000001433498741452     0.0000001704796929095     0.0000001832214675559     0.0000001736616474112     0.0000001372695929311     0.0000000761267593674     0.0000000000002606026     -0.0000000761262353578     -0.0000001372690597376     -0.0000001736610958133     -0.0000001832208838622     -0.0000001704790613208     -0.0000001433491847736     -0.0000001098823449864     -0.0000000763559734235     -0.0000000468062075875     -0.0000000233802557584     -0.0000000068519202926     0.0000000030047778396     0.0000000071534575232     0.0000000070161218880     0.0000000041507529840     -0.0000000000001051360 
    -0.0000000000001731353     -0.0000000041280017745     -0.0000000070309049409     -0.0000000073498780289     -0.0000000036294814979     0.0000000054637262168     0.0000000208530727983     0.0000000427724173121     0.0000000704684511162     0.0000001018109551584     0.0000001328499725049     0.0000001576241353882     0.0000001687554904108     0.0000001592659807543     0.0000001254146607881     0.0000000693740819645     0.0000000000005332294     -0.0000000693730114099     -0.0000001254135758265     -0.0000001592648638708     -0.0000001687543132001     -0.0000001576228634256     -0.0000001328485819878     -0.0000001018094541641     -0.0000000704668927922     -0.0000000427708968657     -0.0000000208517092790     -0.0000000054626359129     0.0000000036302129066     0.0000000073502191878     0.0000000070308933809     0.0000000041277439456     -0.0000000000001731353 
    -0.0000000000001667159     -0.0000000041170832733     -0.0000000071121512351     -0.0000000077610764265     -0.0000000047660973359     0.0000000030756670634     0.0000000166335806066     0.0000000361647827400     0.0000000609711082825     0.0000000889941249346     0.0000001164739009393     0.0000001379606315189     0.0000001470460299315     0.0000001380158597851     0.0000001081327689207     0.0000000596059842640     0.0000000000008274653     -0.0000000596043264126     -0.0000001081310980726     -0.0000001380141524565     -0.0000001470442431747     -0.0000001379587101067     -0.0000001164718020563     -0.0000000889918502761     -0.0000000609687258029     -0.0000000361624259444     -0.0000000166314249361     -0.0000000030738909715     0.0000000047673567752     0.0000000077617633689     0.0000000071123157626     0.0000000041168815467     -0.0000000000001667159 
    -0.0000000000000451726     -0.0000000041455333628     -0.0000000073443537848     -0.0000000085600548149     -0.0000000066738670949     -0.0000000006044100645     0.0000000104886091668     0.0000000269149924856     0.0000000480734878936     0.0000000720552175026     0.0000000954188718389     0.0000001133848775383     0.0000001206438509619     0.0000001127802996565     0.0000000879813200420     0.0000000483453217283     0.0000000000011468842     -0.0000000483430290273     -0.0000000879790236146     -0.0000001127779740603     -0.0000001206414419451     -0.0000001133823105616     -0.0000000954160814888     -0.0000000720521870262     -0.0000000480702801221     -0.0000000269117577732     -0.0000000104855654545     0.0000000006070224545     0.0000000066758474762     0.0000000085613053452     0.0000000073449223833     0.0000000041456179494     -0.0000000000000451726 
    0.0000000000002288139     -0.0000000042047270275     -0.0000000078134004820     -0.0000000100527334658     -0.0000000099250594998     -0.0000000063321002153     0.0000000016619878669     0.0000000144747342173     0.0000000316127079218     0.0000000513524234472     0.0000000706621545519     0.0000000855226193456     0.0000000917076791461     0.0000000859240626019     0.0000000670182854628     0.0000000367982886035     0.0000000000014851938     -0.0000000367953261174     -0.0000000670153366981     -0.0000000859211052397     -0.0000000917046531407     -0.0000000855194351083     -0.0000000706587215602     -0.0000000513486911693     -0.0000000316087054847     -0.0000000144705955105     -0.0000000016579494647     0.0000000063357392885     0.0000000099280169472     0.0000000100548410600     0.0000000078146793532     0.0000000042054042173     0.0000000000002288139 
    0.0000000000006539369     -0.0000000041192896331     -0.0000000084422329531     -0.0000000126071343412     -0.0000000155059933414     -0.0000000155939570678     -0.0000000114913932484     -0.0000000025653208978     0.0000000107138122198     0.0000000266883618653     0.0000000426833465230     0.0000000554161014915     0.0000000616328049271     0.0000000589091761094     0.0000000464547477961     0.0000000256499140570     0.0000000000018245686     -0.0000000256462822694     -0.0000000464511546860     -0.0000000589056070797     -0.0000000616291988740     -0.0000000554123569264     -0.0000000426793442342     -0.0000000266840015296     -0.0000000107090600879     0.0000000025703817171     0.0000000114965323943     0.0000000155988194868     0.0000000155101941504     0.0000000126104019104     0.0000000084445331700     0.0000000041208653686     0.0000000000006539369 
    0.0000000000009283263     -0.0000000043313793320     -0.0000000102749743716     -0.0000000175238207328     -0.0000000247054711550     -0.0000000307239021410     -0.0000000318003990302     -0.0000000268214714824     -0.0000000165109916615     -0.0000000028957804671     0.0000000113684122055     0.0000000235335498373     0.0000000311504705290     0.0000000324548115055     0.0000000268235284196     0.0000000151738432883     0.0000000000021379545     -0.0000000151695959578     -0.0000000268193497372     -0.0000000324506970881     -0.0000000311463596692     -0.0000000235293285251     -0.0000000113639277597     0.0000000029006890775     0.0000000165164377330     0.0000000268274405423     0.0000000318066781546     0.0000000307300782758     0.0000000247110394785     0.0000000175282969132     0.0000000102781886564     0.0000000043336068467     0.0000000000009283263 
    0.0000000000005445453     -0.0000000030629771876     -0.0000000132113639942     -0.0000000307468893990     -0.0000000484731143390     -0.0000000586405356540     -0.0000000631641211724     -0.0000000621594788583     -0.0000000530341361199     -0.0000000391467198012     -0.0000000239272807797     -0.0000000100473303262     0.0000000006363525957     0.0000000069256892225     0.0000000083485499594     0.0000000054602987614     0.0000000000023942147     -0.0000000054555502520     -0.0000000083439004549     -0.0000000069211444808     -0.0000000006318509379     0.0000000100519182314     0.0000000239321433986     0.0000000391520771977     0.0000000530401726516     0.0000000621662343026     0.0000000631713858630     0.0000000586477139960     0.0000000484793365897     0.0000000307515279500     0.0000000132142722002     0.0000000030645604769     0.0000000000005445453 
    -0.0000000000006059125     0.0000000067686758311     -0.0000000059405625134     -0.0000000423290669851     -0.0000000874733818604     -0.0000001183171687820     -0.0000001225305492398     -0.0000001129969496050     -0.0000001024387311672     -0.0000000842748535741     -0.0000000641410111330     -0.0000000454221786982     -0.0000000296407040126     -0.0000000173844547578     -0.0000000087923248293     -0.0000000034233804900     0.0000000000025626324     0.0000000034284565605     0.0000000087972767782     0.0000000173892682653     0.0000000296454427316     0.0000000454269873119     0.0000000641461081823     0.0000000842804985594     0.0000001024451410361     0.0000001130041687551     0.0000001225380879348     0.0000001183240878152     0.0000000874787610800     0.0000000423322996485     0.0000000059415942306     -0.0000000067692829727     -0.0000000000006059125 
    -0.0000000000023231282     0.0000000330824209534     0.0000000252862520002     -0.0000000361895276538     -0.0000001270486231821     -0.0000002022167868130     -0.0000002267121074253     -0.0000002012842559694     -0.0000001676086137615     -0.0000001401037767921     -0.0000001100181773414     -0.0000000826198115212     -0.0000000594033052398     -0.0000000401797808990     -0.0000000244083594842     -0.0000000113964125208     0.0000000000026148380     0.0000000114015877079     0.0000000244133953402     0.0000000401846561140     0.0000000594080828919     0.0000000826246443536     0.0000001100232966632     0.0000001401094452083     0.0000001676150217528     0.0000002012911548651     0.0000002267186431668     0.0000002022219841003     0.0000001270516325816     0.0000000361898912731     -0.0000000252884186981     -0.0000000330864061731     -0.0000000000023231282 
    -0.0000000000040992869     0.0000000812867655158     0.0000000908901003222     0.0000000019921997740     -0.0000001509131552218     -0.0000002944249598055     -0.0000003625608478443     -0.0000003373773087151     -0.0000002610703917825     -0.0000002067085382769     -0.0000001613510208190     -0.0000001212623840869     -0.0000000882723219274     -0.0000000611808865258     -0.0000000383411339873     -0.0000000183946240924     0.0000000000025263548     0.0000000183996219685     0.0000000383459896007     0.0000000611855726514     0.0000000882768946474     0.0000001212669892715     0.0000001613558757545     0.0000002067138657645     0.0000002610762025165     0.0000003373829122265     0.0000003625653043870     0.0000002944273509931     0.0000001509128343603     -0.0000000019954238609     -0.0000000908958982063     -0.0000000812943333780     -0.0000000000040992869 
    -0.0000000000053127532     0.0000001505284548808     0.0000001915091494466     0.0000000773681994013     -0.0000001477321105013     -0.0000003780911683133     -0.0000005103193792230     -0.0000005021368406958     -0.0000003928523887928     -0.0000002812362484380     -0.0000002161050138682     -0.0000001601167324856     -0.0000001155756545283     -0.0000000800690851717     -0.0000000504649606406     -0.0000000243807643284     0.0000000000022810864     0.0000000243852762166     0.0000000504693398140     0.0000000800733000356     0.0000001155797470274     0.0000001601208242873     0.0000002161092809619     0.0000002812408399548     0.0000003928569615304     0.0000005021405538339     0.0000005103212977490     0.0000003780905318355     0.0000001477285625634     -0.0000000773745429855     -0.0000001915177743884     -0.0000001505385650143     -0.0000000000053127532 
    -0.0000000000054962213     0.0000002316981924499     0.0000003140530556660     0.0000001804329756401     -0.0000001172342284823     -0.0000004410978801008     -0.0000006484290765586     -0.0000006697721502385     -0.0000005391621252906     -0.0000003690341226664     -0.0000002698626644053     -0.0000001967208537828     -0.0000001401018958890     -0.0000000963274251472     -0.0000000605936620389     -0.0000000293022068137     0.0000000000018782524     0.0000000293059217937     0.0000000605972653571     0.0000000963308843157     0.0000001401052353296     0.0000001967241593394     0.0000002698660550282     0.0000003690376191567     0.0000005391651922971     0.0000006697739739858     0.0000006484288398310     0.0000004410950455793     0.0000001172287187681     -0.0000001804408155350     -0.0000003140626350495     -0.0000002317088303690     -0.0000000000054962213 
    -0.0000000000045054983     0.0000003089659069189     0.0000004335402753635     0.0000002875607939748     -0.0000000719100397061     -0.0000004798410085503     -0.0000007585272107726     -0.0000008131435907173     -0.0000006715023768527     -0.0000004567864089266     -0.0000003161214299208     -0.0000002274245193370     -0.0000001600187501350     -0.0000001091235977487     -0.0000000683825553426     -0.0000000330380599111     0.0000000000013370404     0.0000000330407044938     0.0000000683851192079     0.0000001091260533344     0.0000001600211071155     0.0000002274268270346     0.0000003161237526934     0.0000004567886672648     0.0000006715040768606     0.0000008131440862546     0.0000007585259042005     0.0000004798375871020     0.0000000719045918611     -0.0000002875678678132     -0.0000004335484603468     -0.0000003089747176036     -0.0000000000045054983 
    -0.0000000000025295675     0.0000003645894569260     0.0000005208230928925     0.0000003686859771614     -0.0000000321010874414     -0.0000004984507199802     -0.0000008284863537224     -0.0000009092167864726     -0.0000007633881566416     -0.0000005210124405126     -0.0000003477086463746     -0.0000002481026695650     -0.0000001731785816066     -0.0000001174148392130     -0.0000000733532519006     -0.0000000354014689962     0.0000000000006948050     0.0000000354028433226     0.0000000733545838741     0.0000001174161128103     0.0000001731797987455     0.0000002481038509663     0.0000003477098172390     0.0000005210135207097     0.0000007633888574673     0.0000009092167505987     0.0000008284852683593     0.0000004984484508447     0.0000000320977334117     -0.0000003686901535899     -0.0000005208277932333     -0.0000003645944320619     -0.0000000000025295675 
    0.0000000000000000000     0.0000003848437717886     0.0000005528284072206     0.0000003989306522335     -0.0000000163479824670     -0.0000005036116191380     -0.0000008523507092350     -0.0000009429624377905     -0.0000007962371543670     -0.0000005445209385845     -0.0000003589579531696     -0.0000002554242335252     -0.0000001777982328234     -0.0000001202989262903     -0.0000000750697696051     -0.0000000362143117522     0.0000000000000000000     0.0000000362143117522     0.0000000750697696051     0.0000001202989262903     0.0000001777982328234     0.0000002554242335252     0.0000003589579531696     0.0000005445209385845     0.0000007962371543670     0.0000009429624377905     0.0000008523507092350     0.0000005036116191380     0.0000000163479824670     -0.0000003989306522335     -0.0000005528284072206     -0.0000003848437717886     0.0000000000000000000 
    -0.0000000000000000000     0.0000001790966959351     0.0000001899217014859     -0.0000000437057498882     -0.0000004607015902772     -0.0000008934997710952     -0.0000011616232488478     -0.0000011700359840143     -0.0000009507910281481     -0.0000006330474843734     -0.0000003758810752344     -0.0000002523268159974     -0.0000001690807268987     -0.0000001111296644820     -0.0000000680952322954     -0.0000000325539528707     -0.0000000000000000000     0.0000000325539528707     0.0000000680952322954     0.0000001111296644820     0.0000001690807268987     0.0000002523268159974     0.0000003758810752344     0.0000006330474843734     0.0000009507910281481     0.0000011700359840143     0.0000011616232488478     0.0000008934997710952     0.0000004607015902772     0.0000000437057498882     -0.0000001899217014859     -0.0000001790966959351     -0.0000000000000000000 
    0.0000000000031879338     0.0000001661572386186     0.0000001707611734944     -0.0000000583887029253     -0.0000004609709943641     -0.0000008749022439956     -0.0000011272296951065     -0.0000011285718195755     -0.0000009123268804072     -0.0000006051044978693     -0.0000003616912693695     -0.0000002446682615317     -0.0000001644110120873     -0.0000001083032914607     -0.0000000664514474776     -0.0000000317861971154     -0.0000000000007699630     0.0000000317846659323     0.0000000664499400022     0.0000001083018139064     0.0000001644095556698     0.0000002446668036211     0.0000003616897985534     0.0000006051032076833     0.0000009123261549716     0.0000011285721190040     0.0000011272314038565     0.0000008749054930519     0.0000004609755952630     0.0000000583942554241     -0.0000001707550881411     -0.0000001661509221555     0.0000000000031879338 
    0.0000000000057809119     0.0000001311084602111     0.0000001196356779754     -0.0000000956732297398     -0.0000004571295747563     -0.0000008184043135996     -0.0000010275854016017     -0.0000010107203271390     -0.0000008045190817982     -0.0000005281701694293     -0.0000003243011719965     -0.0000002231988678809     -0.0000001512345449064     -0.0000001002678121180     -0.0000000617479838991     -0.0000000295800967114     -0.0000000000014843069     0.0000000295771451853     0.0000000617450775763     0.0000001002649594335     0.0000001512317219691     0.0000002231960194175     0.0000003242982478841     0.0000005281674474557     0.0000008045172433535     0.0000010107202123208     0.0000010275877522894     0.0000008184094560805     0.0000004571372768856     0.0000000956828516259     -0.0000001196248724475     -0.0000001310970684000     0.0000000000057809119 
    0.0000000000072816736     0.0000000839323953325     0.0000000530837766166     -0.0000001385328268349     -0.0000004383893620122     -0.0000007240207676470     -0.0000008738708152465     -0.0000008352333567390     -0.0000006483924811327     -0.0000004209889299865     -0.0000002747565637765     -0.0000001917884670205     -0.0000001316602022898     -0.0000000881290358418     -0.0000000545448688862     -0.0000000261736826135     -0.0000000000020918351     0.0000000261695232908     0.0000000545407719038     0.0000000881250065667     0.0000001316561949434     0.0000001917843836265     0.0000002747522962856     0.0000004209846579078     0.0000006483890262247     0.0000008352317924186     0.0000008738721698575     0.0000007240256372513     0.0000004383976851718     0.0000001385439820882     -0.0000000530706631933     -0.0000000839181815147     0.0000000000072816736 
    0.0000000000074049477     0.0000000371869810879     -0.0000000088310209239     -0.0000001678707442563     -0.0000003952773170987     -0.0000005969852118257     -0.0000006854031584910     -0.0000006301088086389     -0.0000004735575702175     -0.0000003089951049134     -0.0000002184298350480     -0.0000001551343191310     -0.0000001081721894484     -0.0000000731402947327     -0.0000000454506510910     -0.0000000218175056089     -0.0000000000025528395     0.0000000218124295227     0.0000000454456483294     0.0000000731353642495     0.0000001081672629962     0.0000001551292571954     0.0000002184244651711     0.0000003089893965227     0.0000004735522474266     0.0000006301049997362     0.0000006854020562939     0.0000005969876982496     0.0000003952836717699     0.0000001678806109941     0.0000000088435928953     -0.0000000371727349207     0.0000000000074049477 
    0.0000000000062020105     0.0000000014252033366     -0.0000000504156894884     -0.0000001713381402819     -0.0000003265048311964     -0.0000004504882363492     -0.0000004877385065672     -0.0000004272486773988     -0.0000003113828132393     -0.0000002175716923390     -0.0000001622606727670     -0.0000001172634674994     -0.0000000828157119043     -0.0000000562720370901     -0.0000000349013163401     -0.0000000166795401763     -0.0000000000028461764     0.0000000166738797332     0.0000000348957328056     0.0000000562665230729     0.0000000828101844123     0.0000001172577611005     0.0000001622545665959     0.0000002175649997949     0.0000003113758625625     0.0000004272424932280     0.0000004877342990848     0.0000004504871001493     0.0000003265074251211     0.0000001713445023069     0.0000000504252380821     -0.0000000014135390208     0.0000000000062020105 
    0.0000000000041183108     -0.0000000182934146432     -0.0000000657368770265     -0.0000001481490432671     -0.0000002409855689565     -0.0000003039324236617     -0.0000003077185665585     -0.0000002557824331293     -0.0000001881075988412     -0.0000001471344413733     -0.0000001109905423064     -0.0000000807709835904     -0.0000000568780635274     -0.0000000381063632969     -0.0000000231393348318     -0.0000000108462982871     -0.0000000000029712678     0.0000000108403864695     0.0000000231334955120     0.0000000381005851853     0.0000000568722611698     0.0000000807649888101     0.0000001109841177638     0.0000001471273435465     0.0000001880997414060     0.0000002557744914683     0.0000003077116453992     0.0000003039276973182     0.0000002409839729384     0.0000001481509778329     0.0000000657420435163     0.0000000183008409005     0.0000000000041183108 
    0.0000000000018688356     -0.0000000231470745892     -0.0000000590248750902     -0.0000001078087707578     -0.0000001542844613457     -0.0000001775802992720     -0.0000001674148252650     -0.0000001362830271567     -0.0000001131147753825     -0.0000000896691542304     -0.0000000666591167240     -0.0000000468733162358     -0.0000000310454672628     -0.0000000190103730379     -0.0000000103506196015     -0.0000000043960915659     -0.0000000000029437644     0.0000000043902302061     0.0000000103448188950     0.0000000190046201747     0.0000000310396846223     0.0000000468673524801     0.0000000666527504894     0.0000000896621340393     0.0000001131069210762     0.0000001362744508724     0.0000001674063881310     0.0000001775731247675     0.0000001542795877948     0.0000001078068143300     0.0000000590257767246     0.0000000231500538615     0.0000000000018688356 
    0.0000000000001342896     -0.0000000185518472423     -0.0000000406889058050     -0.0000000645432940437     -0.0000000824350413685     -0.0000000869317223286     -0.0000000797850701155     -0.0000000726551127716     -0.0000000603820537014     -0.0000000448607301524     -0.0000000293252518864     -0.0000000158973886278     -0.0000000057308034230     0.0000000006460009797     0.0000000032025485802     0.0000000025385189749     -0.0000000000027886094     -0.0000000025440767802     -0.0000000032080626148     -0.0000000006514851130     0.0000000057252830672     0.0000000158917061142     0.0000000293192224635     0.0000000448541381363     0.0000000603747306927     0.0000000726470624109     0.0000000797766205324     0.0000000869237840466     0.0000000824285986569     0.0000000645390118316     0.0000000406868699956     0.0000000185514938364     0.0000000000001342896 
    -0.0000000000007275565     -0.0000000110399982771     -0.0000000219840016754     -0.0000000312999643858     -0.0000000368635175864     -0.0000000394852949717     -0.0000000390799319812     -0.0000000331733278717     -0.0000000229488109960     -0.0000000104740679613     0.0000000019462436889     0.0000000122184547957     0.0000000187092952719     0.0000000204207422208     0.0000000171758626638     0.0000000097791694591     -0.0000000000025348600     -0.0000000097842268536     -0.0000000171808941262     -0.0000000204257638987     -0.0000000187143645312     -0.0000000122236744889     -0.0000000019517564610     0.0000000104681066616     0.0000000229422944421     0.0000000331662893226     0.0000000390726247859     0.0000000394781934749     0.0000000368572880391     0.0000000312952030650     0.0000000219808508282     0.0000000110380822898     -0.0000000000007275565 
    -0.0000000000007509235     -0.0000000058127388746     -0.0000000111761686612     -0.0000000157763552163     -0.0000000186232958692     -0.0000000186086713028     -0.0000000148980260358     -0.0000000072921162086     0.0000000035565429324     0.0000000161386078092     0.0000000282955671914     0.0000000376132033751     0.0000000419340923977     0.0000000398775834149     0.0000000312388911823     0.0000000171608496128     -0.0000000000022130045     -0.0000000171652689278     -0.0000000312432990212     -0.0000000398819991326     -0.0000000419385693700     -0.0000000376178286214     -0.0000000283004465554     -0.0000000161438336524     -0.0000000035621447069     0.0000000072862282830     0.0000000148920977138     0.0000000186030842729     0.0000000186184684346     0.0000000157725868800     0.0000000111735008550     0.0000000058109182750     -0.0000000000007509235 
    -0.0000000000003459828     -0.0000000041158057117     -0.0000000075376372419     -0.0000000095460435495     -0.0000000093999121172     -0.0000000063957439403     -0.0000000000025694315     0.0000000099098843364     0.0000000227814017725     0.0000000371386082727     0.0000000506201746791     0.0000000603544301688     0.0000000636288647741     0.0000000586473717309     0.0000000451290361609     0.0000000245597651680     -0.0000000000018523024     -0.0000000245634663581     -0.0000000451327343139     -0.0000000586510883066     -0.0000000636326511611     -0.0000000603583628230     -0.0000000506243315034     -0.0000000371430309949     -0.0000000227860566966     -0.0000000099146357176     -0.0000000000020400262     0.0000000063915806273     0.0000000093964880250     0.0000000095435401481     0.0000000075360387332     0.0000000041148703170     -0.0000000000003459828 
    -0.0000000000000501818     -0.0000000031807605360     -0.0000000054977272316     -0.0000000061096227636     -0.0000000042330425567     0.0000000008028219771     0.0000000094571939299     0.0000000217840476305     0.0000000371369954295     0.0000000538922201355     0.0000000694018590809     0.0000000803378415327     0.0000000834168026000     0.0000000763229255020     0.0000000585442798373     0.0000000318239639408     -0.0000000000014766481     -0.0000000318269150119     -0.0000000585472304887     -0.0000000763258962991     -0.0000000834198405879     -0.0000000803410126042     -0.0000000694052201073     -0.0000000538957806798     -0.0000000371406880989     -0.0000000217877217976     -0.0000000094606359735     -0.0000000008057971256     0.0000000042307338456     0.0000000061080835223     0.0000000054969145220     0.0000000031804699475     -0.0000000000000501818 
    0.0000000000000949902     -0.0000000026812865955     -0.0000000044117844613     -0.0000000042442400708     -0.0000000012834614616     0.0000000052177424105     0.0000000157220416388     0.0000000302094674958     0.0000000479075004020     0.0000000670291048821     0.0000000846909719792     0.0000000971842900243     0.0000001006700641793     0.0000000922160123294     0.0000000709111033833     0.0000000386301351906     -0.0000000000011008488     -0.0000000386323347878     -0.0000000709133018380     -0.0000000922182261592     -0.0000001006723315518     -0.0000000971866627300     -0.0000000846934894917     -0.0000000670317614964     -0.0000000479102246788     -0.0000000302121261491     -0.0000000157244652023     -0.0000000052197614613     0.0000000012819783915     0.0000000042433504991     0.0000000044114429727     0.0000000026813350210     0.0000000000000949902 
    0.0000000000001233193     -0.0000000024288132037     -0.0000000038484572514     -0.0000000032263370458     0.0000000004384697636     0.0000000079772069234     0.0000000198690623816     0.0000000360331950679     0.0000000555936430486     0.0000000766528347597     0.0000000961832193313     0.0000001102020503738     0.0000001143886641854     0.0000001051930261831     0.0000000812266525658     0.0000000443859060531     -0.0000000000007302550     -0.0000000443873646001     -0.0000000812281089078     -0.0000001051944911262     -0.0000001143901636277     -0.0000001102036189288     -0.0000000961848812235     -0.0000000766545808002     -0.0000000555954181598     -0.0000000360349044079     -0.0000000198705919817     -0.0000000079784485331     -0.0000000004393433355     0.0000000032258633196     0.0000000038483497044     0.0000000024289655229     0.0000000000001233193 
    0.0000000000000788613     -0.0000000023124677489     -0.0000000035772517051     -0.0000000027058694284     0.0000000013721800620     0.0000000095438866725     0.0000000222995581917     0.0000000395191136019     0.0000000602648700082     0.0000000825847388052     0.0000001033841515175     0.0000001185195741954     0.0000001233382802977     0.0000001138233967833     0.0000000881922869697     0.0000000483102390977     -0.0000000000003641267     -0.0000000483109661142     -0.0000000881930121846     -0.0000001138241253092     -0.0000001233390248761     -0.0000001185203517369     -0.0000001033849732357     -0.0000000825855986799     -0.0000000602657390425     -0.0000000395199437280     -0.0000000223002931873     -0.0000000095444743393     -0.0000000013725824439     0.0000000027056670168     0.0000000035772322230     0.0000000023125782412     0.0000000000000788613 
    0.0000000000000000000     -0.0000000022789225270     -0.0000000034961628343     -0.0000000025438157855     0.0000000016723845782     0.0000000100582491656     0.0000000231076158253     0.0000000406869982830     0.0000000618387806916     0.0000000845956027149     0.0000001058449124727     0.0000001213907791763     0.0000001264615880884     0.0000001168656613341     0.0000000906670660650     0.0000000497114431496     -0.0000000000000000000     -0.0000000497114431496     -0.0000000906670660650     -0.0000001168656613341     -0.0000001264615880884     -0.0000001213907791763     -0.0000001058449124727     -0.0000000845956027149     -0.0000000618387806916     -0.0000000406869982830     -0.0000000231076158253     -0.0000000100582491656     -0.0000000016723845782     0.0000000025438157855     0.0000000034961628343     0.0000000022789225270     0.0000000000000000000 
    -0.0000000000000788613     -0.0000000023125782412     -0.0000000035772322230     -0.0000000027056670168     0.0000000013725824439     0.0000000095444743393     0.0000000223002931873     0.0000000395199437280     0.0000000602657390425     0.0000000825855986799     0.0000001033849732357     0.0000001185203517369     0.0000001233390248761     0.0000001138241253092     0.0000000881930121846     0.0000000483109661142     0.0000000000003641267     -0.0000000483102390977     -0.0000000881922869697     -0.0000001138233967833     -0.0000001233382802977     -0.0000001185195741954     -0.0000001033841515175     -0.0000000825847388052     -0.0000000602648700082     -0.0000000395191136019     -0.0000000222995581917     -0.0000000095438866725     -0.0000000013721800620     0.0000000027058694284     0.0000000035772517051     0.0000000023124677489     -0.0000000000000788613 
    -0.0000000000001233193     -0.0000000024289655229     -0.0000000038483497044     -0.0000000032258633196     0.0000000004393433355     0.0000000079784485331     0.0000000198705919817     0.0000000360349044079     0.0000000555954181598     0.0000000766545808002     0.0000000961848812235     0.0000001102036189288     0.0000001143901636277     0.0000001051944911262     0.0000000812281089078     0.0000000443873646001     0.0000000000007302550     -0.0000000443859060531     -0.0000000812266525658     -0.0000001051930261831     -0.0000001143886641854     -0.0000001102020503738     -0.0000000961832193313     -0.0000000766528347597     -0.0000000555936430486     -0.0000000360331950679     -0.0000000198690623816     -0.0000000079772069234     -0.0000000004384697636     0.0000000032263370458     0.0000000038484572514     0.0000000024288132037     -0.0000000000001233193 
    -0.0000000000000949902     -0.0000000026813350210     -0.0000000044114429727     -0.0000000042433504991     -0.0000000012819783915     0.0000000052197614613     0.0000000157244652023     0.0000000302121261491     0.0000000479102246788     0.0000000670317614964     0.0000000846934894917     0.0000000971866627300     0.0000001006723315518     0.0000000922182261592     0.0000000709133018380     0.0000000386323347878     0.0000000000011008488     -0.0000000386301351906     -0.0000000709111033833     -0.0000000922160123294     -0.0000001006700641793     -0.0000000971842900243     -0.0000000846909719792     -0.0000000670291048821     -0.0000000479075004020     -0.0000000302094674958     -0.0000000157220416388     -0.0000000052177424105     0.0000000012834614616     0.0000000042442400708     0.0000000044117844613     0.0000000026812865955     -0.0000000000000949902 
    0.0000000000000501818     -0.0000000031804699475     -0.0000000054969145220     -0.0000000061080835223     -0.0000000042307338456     0.0000000008057971256     0.0000000094606359735     0.0000000217877217976     0.0000000371406880989     0.0000000538957806798     0.0000000694052201073     0.0000000803410126042     0.0000000834198405879     0.0000000763258962991     0.0000000585472304887     0.0000000318269150119     0.0000000000014766481     -0.0000000318239639408     -0.0000000585442798373     -0.0000000763229255020     -0.0000000834168026000     -0.0000000803378415327     -0.0000000694018590809     -0.0000000538922201355     -0.0000000371369954295     -0.0000000217840476305     -0.0000000094571939299     -0.0000000008028219771     0.0000000042330425567     0.0000000061096227636     0.0000000054977272316     0.0000000031807605360     0.0000000000000501818 
    0.0000000000003459828     -0.0000000041148703170     -0.0000000075360387332     -0.0000000095435401481     -0.0000000093964880250     -0.0000000063915806273     0.0000000000020400262     0.0000000099146357176     0.0000000227860566966     0.0000000371430309949     0.0000000506243315034     0.0000000603583628230     0.0000000636326511611     0.0000000586510883066     0.0000000451327343139     0.0000000245634663581     0.0000000000018523024     -0.0000000245597651680     -0.0000000451290361609     -0.0000000586473717309     -0.0000000636288647741     -0.0000000603544301688     -0.0000000506201746791     -0.0000000371386082727     -0.0000000227814017725     -0.0000000099098843364     0.0000000000025694315     0.0000000063957439403     0.0000000093999121172     0.0000000095460435495     0.0000000075376372419     0.0000000041158057117     0.0000000000003459828 
    0.0000000000007509235     -0.0000000058109182750     -0.0000000111735008550     -0.0000000157725868800     -0.0000000186184684346     -0.0000000186030842729     -0.0000000148920977138     -0.0000000072862282830     0.0000000035621447069     0.0000000161438336524     0.0000000283004465554     0.0000000376178286214     0.0000000419385693700     0.0000000398819991326     0.0000000312432990212     0.0000000171652689278     0.0000000000022130045     -0.0000000171608496128     -0.0000000312388911823     -0.0000000398775834149     -0.0000000419340923977     -0.0000000376132033751     -0.0000000282955671914     -0.0000000161386078092     -0.0000000035565429324     0.0000000072921162086     0.0000000148980260358     0.0000000186086713028     0.0000000186232958692     0.0000000157763552163     0.0000000111761686612     0.0000000058127388746     0.0000000000007509235 
    0.0000000000007275565     -0.0000000110380822898     -0.0000000219808508282     -0.0000000312952030650     -0.0000000368572880391     -0.0000000394781934749     -0.0000000390726247859     -0.0000000331662893226     -0.0000000229422944421     -0.0000000104681066616     0.0000000019517564610     0.0000000122236744889     0.0000000187143645312     0.0000000204257638987     0.0000000171808941262     0.0000000097842268536     0.0000000000025348600     -0.0000000097791694591     -0.0000000171758626638     -0.0000000204207422208     -0.0000000187092952719     -0.0000000122184547957     -0.0000000019462436889     0.0000000104740679613     0.0000000229488109960     0.0000000331733278717     0.0000000390799319812     0.0000000394852949717     0.0000000368635175864     0.0000000312999643858     0.0000000219840016754     0.0000000110399982771     0.0000000000007275565 
    -0.0000000000001342896     -0.0000000185514938364     -0.0000000406868699956     -0.0000000645390118316     -0.0000000824285986569     -0.0000000869237840466     -0.0000000797766205324     -0.0000000726470624109     -0.0000000603747306927     -0.0000000448541381363     -0.0000000293192224635     -0.0000000158917061142     -0.0000000057252830672     0.0000000006514851130     0.0000000032080626148     0.0000000025440767802     0.0000000000027886094     -0.0000000025385189749     -0.0000000032025485802     -0.0000000006460009797     0.0000000057308034230     0.0000000158973886278     0.0000000293252518864     0.0000000448607301524     0.0000000603820537014     0.0000000726551127716     0.0000000797850701155     0.0000000869317223286     0.0000000824350413685     0.0000000645432940437     0.0000000406889058050     0.0000000185518472423     -0.0000000000001342896 
    -0.0000000000018688356     -0.0000000231500538615     -0.0000000590257767246     -0.0000001078068143300     -0.0000001542795877948     -0.0000001775731247675     -0.0000001674063881310     -0.0000001362744508724     -0.0000001131069210762     -0.0000000896621340393     -0.0000000666527504894     -0.0000000468673524801     -0.0000000310396846223     -0.0000000190046201747     -0.0000000103448188950     -0.0000000043902302061     0.0000000000029437644     0.0000000043960915659     0.0000000103506196015     0.0000000190103730379     0.0000000310454672628     0.0000000468733162358     0.0000000666591167240     0.0000000896691542304     0.0000001131147753825     0.0000001362830271567     0.0000001674148252650     0.0000001775802992720     0.0000001542844613457     0.0000001078087707578     0.0000000590248750902     0.0000000231470745892     -0.0000000000018688356 
    -0.0000000000041183108     -0.0000000183008409005     -0.0000000657420435163     -0.0000001481509778329     -0.0000002409839729384     -0.0000003039276973182     -0.0000003077116453992     -0.0000002557744914683     -0.0000001880997414060     -0.0000001471273435465     -0.0000001109841177638     -0.0000000807649888101     -0.0000000568722611698     -0.0000000381005851853     -0.0000000231334955120     -0.0000000108403864695     0.0000000000029712678     0.0000000108462982871     0.0000000231393348318     0.0000000381063632969     0.0000000568780635274     0.0000000807709835904     0.0000001109905423064     0.0000001471344413733     0.0000001881075988412     0.0000002557824331293     0.0000003077185665585     0.0000003039324236617     0.0000002409855689565     0.0000001481490432671     0.0000000657368770265     0.0000000182934146432     -0.0000000000041183108 
    -0.0000000000062020105     0.0000000014135390208     -0.0000000504252380821     -0.0000001713445023069     -0.0000003265074251211     -0.0000004504871001493     -0.0000004877342990848     -0.0000004272424932280     -0.0000003113758625625     -0.0000002175649997949     -0.0000001622545665959     -0.0000001172577611005     -0.0000000828101844123     -0.0000000562665230729     -0.0000000348957328056     -0.0000000166738797332     0.0000000000028461764     0.0000000166795401763     0.0000000349013163401     0.0000000562720370901     0.0000000828157119043     0.0000001172634674994     0.0000001622606727670     0.0000002175716923390     0.0000003113828132393     0.0000004272486773988     0.0000004877385065672     0.0000004504882363492     0.0000003265048311964     0.0000001713381402819     0.0000000504156894884     -0.0000000014252033366     -0.0000000000062020105 
    -0.0000000000074049477     0.0000000371727349207     -0.0000000088435928953     -0.0000001678806109941     -0.0000003952836717699     -0.0000005969876982496     -0.0000006854020562939     -0.0000006301049997362     -0.0000004735522474266     -0.0000003089893965227     -0.0000002184244651711     -0.0000001551292571954     -0.0000001081672629962     -0.0000000731353642495     -0.0000000454456483294     -0.0000000218124295227     0.0000000000025528395     0.0000000218175056089     0.0000000454506510910     0.0000000731402947327     0.0000001081721894484     0.0000001551343191310     0.0000002184298350480     0.0000003089951049134     0.0000004735575702175     0.0000006301088086389     0.0000006854031584910     0.0000005969852118257     0.0000003952773170987     0.0000001678707442563     0.0000000088310209239     -0.0000000371869810879     -0.0000000000074049477 
    -0.0000000000072816736     0.0000000839181815147     0.0000000530706631933     -0.0000001385439820882     -0.0000004383976851718     -0.0000007240256372513     -0.0000008738721698575     -0.0000008352317924186     -0.0000006483890262247     -0.0000004209846579078     -0.0000002747522962856     -0.0000001917843836265     -0.0000001316561949434     -0.0000000881250065667     -0.0000000545407719038     -0.0000000261695232908     0.0000000000020918351     0.0000000261736826135     0.0000000545448688862     0.0000000881290358418     0.0000001316602022898     0.0000001917884670205     0.0000002747565637765     0.0000004209889299865     0.0000006483924811327     0.0000008352333567390     0.0000008738708152465     0.0000007240207676470     0.0000004383893620122     0.0000001385328268349     -0.0000000530837766166     -0.0000000839323953325     -0.0000000000072816736 
    -0.0000000000057809119     0.0000001310970684000     0.0000001196248724475     -0.0000000956828516259     -0.0000004571372768856     -0.0000008184094560805     -0.0000010275877522894     -0.0000010107202123208     -0.0000008045172433535     -0.0000005281674474557     -0.0000003242982478841     -0.0000002231960194175     -0.0000001512317219691     -0.0000001002649594335     -0.0000000617450775763     -0.0000000295771451853     0.0000000000014843069     0.0000000295800967114     0.0000000617479838991     0.0000001002678121180     0.0000001512345449064     0.0000002231988678809     0.0000003243011719965     0.0000005281701694293     0.0000008045190817982     0.0000010107203271390     0.0000010275854016017     0.0000008184043135996     0.0000004571295747563     0.0000000956732297398     -0.0000001196356779754     -0.0000001311084602111     -0.0000000000057809119 
    -0.0000000000031879338     0.0000001661509221555     0.0000001707550881411     -0.0000000583942554241     -0.0000004609755952630     -0.0000008749054930519     -0.0000011272314038565     -0.0000011285721190040     -0.0000009123261549716     -0.0000006051032076833     -0.0000003616897985534     -0.0000002446668036211     -0.0000001644095556698     -0.0000001083018139064     -0.0000000664499400022     -0.0000000317846659323     0.0000000000007699630     0.0000000317861971154     0.0000000664514474776     0.0000001083032914607     0.0000001644110120873     0.0000002446682615317     0.0000003616912693695     0.0000006051044978693     0.0000009123268804072     0.0000011285718195755     0.0000011272296951065     0.0000008749022439956     0.0000004609709943641     0.0000000583887029253     -0.0000001707611734944     -0.0000001661572386186     -0.0000000000031879338 
    -0.0000000000000000000     0.0000001790966959351     0.0000001899217014859     -0.0000000437057498882     -0.0000004607015902772     -0.0000008934997710952     -0.0000011616232488478     -0.0000011700359840143     -0.0000009507910281481     -0.0000006330474843734     -0.0000003758810752344     -0.0000002523268159974     -0.0000001690807268987     -0.0000001111296644820     -0.0000000680952322954     -0.0000000325539528707     -0.0000000000000000000     0.0000000325539528707     0.0000000680952322954     0.0000001111296644820     0.0000001690807268987     0.0000002523268159974     0.0000003758810752344     0.0000006330474843734     0.0000009507910281481     0.0000011700359840143     0.0000011616232488478     0.0000008934997710952     0.0000004607015902772     0.0000000437057498882     -0.0000001899217014859     -0.0000001790966959351     -0.0000000000000000000 
    -0.0000000000000000000     0.0000000364016708695     -0.0000000394560828371     -0.0000002746919495488     -0.0000006187440128422     -0.0000009455826312164     -0.0000011230325702336     -0.0000010863376797742     -0.0000008682486214990     -0.0000005736801492160     -0.0000003267660286955     -0.0000002055090417785     -0.0000001340628752017     -0.0000000862503560820     -0.0000000521221685090     -0.0000000247432197900     0.0000000000000000000     0.0000000247432197900     0.0000000521221685090     0.0000000862503560820     0.0000001340628752017     0.0000002055090417785     0.0000003267660286955     0.0000005736801492160     0.0000008682486214990     0.0000010863376797742     0.0000011230325702336     0.0000009455826312164     0.0000006187440128422     0.0000002746919495488     0.0000000394560828371     -0.0000000364016708695     -0.0000000000000000000 
    0.0000000000036652166     0.0000000294826069708     -0.0000000486742887087     -0.0000002788413839883     -0.0000006110744691865     -0.0000009234306590831     -0.0000010893592298717     -0.0000010482725164282     -0.0000008337198085438     -0.0000005484023595467     -0.0000003130020211531     -0.0000001989948545891     -0.0000001301719338914     -0.0000000839406813086     -0.0000000507987863919     -0.0000000241305374915     -0.0000000000008297767     0.0000000241288807656     0.0000000507971365108     0.0000000839390356071     0.0000001301702773623     0.0000001989931628385     0.0000003130003096142     0.0000005484009052809     0.0000008337190711706     0.0000010482730375640     0.0000010893614480767     0.0000009234346962749     0.0000006110800561171     0.0000002788480010943     0.0000000486814167294     -0.0000000294753068625     0.0000000000036652166 
    0.0000000000067265083     0.0000000112013767488     -0.0000000721880169103     -0.0000002870291643244     -0.0000005855293000396     -0.0000008575184760380     -0.0000009921479415413     -0.0000009401289171872     -0.0000007368397880609     -0.0000004785521078282     -0.0000002761959410161     -0.0000001808318413454     -0.0000001192717268270     -0.0000000774318258642     -0.0000000470495934463     -0.0000000223883596760     -0.0000000000015986622     0.0000000223851683961     0.0000000470464158094     0.0000000774286534025     0.0000001192685232124     0.0000001808285463722     0.0000002761925365072     0.0000004785490364913     0.0000007368378712631     0.0000009401291499506     0.0000009921511759562     0.0000008575250371109     0.0000005855388221489     0.0000002870407962990     0.0000000722008350411     -0.0000000111880509305     0.0000000000067265083 
    0.0000000000086536045     -0.0000000119882781855     -0.0000000994621003437     -0.0000002889402324327     -0.0000005368874493953     -0.0000007510354466455     -0.0000008431073459967     -0.0000007791609864940     -0.0000005961357942991     -0.0000003803489145417     -0.0000002282979111773     -0.0000001545422398940     -0.0000001033059480362     -0.0000000677648305387     -0.0000000414152468283     -0.0000000197510262844     -0.0000000000022532279     0.0000000197465292576     0.0000000414107694043     0.0000000677603548058     0.0000001033014101183     0.0000001545375320957     0.0000002282929372801     0.0000003803440737680     0.0000005961321012594     0.0000007791597246164     0.0000008431097084290     0.0000007510420619173     0.0000005368981193257     0.0000002889540845299     0.0000000994780153561     0.0000000120052648596     0.0000000000086536045 
    0.0000000000090879895     -0.0000000322931876679     -0.0000001184383237557     -0.0000002742352768768     -0.0000004626817316156     -0.0000006128876164568     -0.0000006616814622034     -0.0000005908743949119     -0.0000004375347135575     -0.0000002756924617442     -0.0000001803148683837     -0.0000001243410661176     -0.0000000845275824974     -0.0000000561015469091     -0.0000000344763119249     -0.0000000164633199292     -0.0000000000027547221     0.0000000164578225994     0.0000000344708378739     0.0000000560960678035     0.0000000845220081671     0.0000001243352425450     0.0000001803086278035     0.0000002756859399011     0.0000004375288994209     0.0000005908706533133     0.0000006616811930605     0.0000006128917877204     0.0000004626905350926     0.0000002742481289499     0.0000001184541573913     0.0000000323107862769     0.0000000000090879895 
    0.0000000000079849431     -0.0000000437539227545     -0.0000001209953361344     -0.0000002385638946587     -0.0000003676149655749     -0.0000004588507018356     -0.0000004725790918331     -0.0000004039340878369     -0.0000002882687342523     -0.0000001864226528054     -0.0000001333731754079     -0.0000000937534984411     -0.0000000647361999120     -0.0000000433132145439     -0.0000000266374818834     -0.0000000126863418108     -0.0000000000030835627     0.0000000126801877378     0.0000000266313510584     0.0000000433070712181     0.0000000647299386940     0.0000000937469373364     0.0000001333660914315     0.0000001864149139789     0.0000002882609967203     0.0000004039276074692     0.0000004725753030216     0.0000004588508372236     0.0000003676196742251     0.0000002385730594870     0.0000001210081445013     0.0000000437690834765     0.0000000000079849431 
    0.0000000000057330221     -0.0000000444301480833     -0.0000001061727174396     -0.0000001860449689544     -0.0000002637276387951     -0.0000003088335882267     -0.0000003007130198264     -0.0000002440443321899     -0.0000001709091229022     -0.0000001243802667269     -0.0000000913134230263     -0.0000000649570758651     -0.0000000450024454524     -0.0000000298869447248     -0.0000000181069788777     -0.0000000084972160734     -0.0000000000032387498     0.0000000084907501667     0.0000000181005317509     0.0000000298804787564     0.0000000449958563215     0.0000000649501813523     0.0000000913059802877     0.0000001243720509847     0.0000001709002221917     0.0000002440357205960     0.0000003007060127889     0.0000003088295248132     0.0000002637275141147     0.0000001860491133666     0.0000001061806586553     0.0000000444406910119     0.0000000000057330221 
    0.0000000000030900295     -0.0000000365144855235     -0.0000000796080564377     -0.0000001271041551923     -0.0000001663472017029     -0.0000001815277719013     -0.0000001655862080671     -0.0000001289093610529     -0.0000000985797685292     -0.0000000763119398608     -0.0000000557670112871     -0.0000000388880036251     -0.0000000258423426863     -0.0000000160982987172     -0.0000000090280199179     -0.0000000039586807953     -0.0000000000032332633     0.0000000039522222147     0.0000000090215717526     0.0000000160918263821     0.0000000258357562701     0.0000000388811442821     0.0000000557596538218     0.0000000763038413918     0.0000000985707869360     0.0000001288998416730     0.0000001655772512330     0.0000001815206579149     0.0000001663430616670     0.0000001271035985143     0.0000000796109125398     0.0000000365197818142     0.0000000000030900295 
    0.0000000000008713270     -0.0000000245891382369     -0.0000000500728307398     -0.0000000736515367600     -0.0000000887768398552     -0.0000000896573046483     -0.0000000777537130397     -0.0000000653922763444     -0.0000000534741028791     -0.0000000397122637581     -0.0000000266438943831     -0.0000000157188212047     -0.0000000075377791993     -0.0000000022252538501     0.0000000003893422340     0.0000000008183805707     -0.0000000000030890566     -0.0000000008245553627     -0.0000000003955166845     0.0000000022190499553     0.0000000075314748030     0.0000000157122907513     0.0000000266369544383     0.0000000397047038828     0.0000000534657746706     0.0000000653832305684     0.0000000777444763206     0.0000000896489792351     0.0000000887704984757     0.0000000736478660293     0.0000000500718542994     0.0000000245901502774     0.0000000000008713270 
    -0.0000000000004180301     -0.0000000133487423384     -0.0000000256038311868     -0.0000000348003398455     -0.0000000388255042707     -0.0000000380343497259     -0.0000000361956343146     -0.0000000307638779348     -0.0000000222918786105     -0.0000000124766963961     -0.0000000030153990751     0.0000000046916752804     0.0000000096609210276     0.0000000113774733964     0.0000000098519795593     0.0000000056761976416     -0.0000000000028339147     -0.0000000056818659625     -0.0000000098576558313     -0.0000000113831838787     -0.0000000096667222121     -0.0000000046976634407     0.0000000030090881262     0.0000000124699137725     0.0000000222845293006     0.0000000307560198538     0.0000000361875627534     0.0000000380266198345     0.0000000388189567582     0.0000000347955970092     0.0000000256010051539     0.0000000133473672620     -0.0000000000004180301 
    -0.0000000000007294940     -0.0000000060585971437     -0.0000000112013471104     -0.0000000149244673522     -0.0000000172548216147     -0.0000000172092394921     -0.0000000143593741903     -0.0000000087484043604     -0.0000000009714268778     0.0000000078468390465     0.0000000162125633584     0.0000000225430473011     0.0000000255097270691     0.0000000243519983517     0.0000000190710931457     0.0000000104638126276     -0.0000000000024990657     -0.0000000104688127517     -0.0000000190761043335     -0.0000000243570451888     -0.0000000255148590638     -0.0000000225483422269     -0.0000000162181169347     -0.0000000078527344632     0.0000000009651698320     0.0000000087418883847     0.0000000143528631150     0.0000000172031381620     0.0000000172495736099     0.0000000149203940440     0.0000000111985393307     0.0000000060567701052     -0.0000000000007294940 
    -0.0000000000004044113     -0.0000000034438305347     -0.0000000062648975343     -0.0000000078968575121     -0.0000000078586020253     -0.0000000057663236124     -0.0000000013716248205     0.0000000053239408438     0.0000000138832426550     0.0000000232811185237     0.0000000319353570705     0.0000000379952121849     0.0000000398145109938     0.0000000364264333155     0.0000000278395051684     0.0000000150787894664     -0.0000000000021151498     -0.0000000150830205563     -0.0000000278437438834     -0.0000000364307026139     -0.0000000398188580931     -0.0000000379997052652     -0.0000000319400638887     -0.0000000232860702837     -0.0000000138883958167     -0.0000000053291518915     0.0000000013665991217     0.0000000057617910239     0.0000000078548613237     0.0000000078940985459     0.0000000062631084321     0.0000000034427575080     -0.0000000000004044113 
    -0.0000000000001036421     -0.0000000022495043100     -0.0000000038363581141     -0.0000000041689115175     -0.0000000027663093218     0.0000000007320640613     0.0000000065437567116     0.0000000146408047566     0.0000000245507714303     0.0000000351637718128     0.0000000447247961254     0.0000000511216293746     0.0000000524105604390     0.0000000473876887063     0.0000000359957767228     0.0000000194409404726     -0.0000000000017065966     -0.0000000194443515258     -0.0000000359991872965     -0.0000000473911182081     -0.0000000524140530789     -0.0000000511252460729     -0.0000000447285863061     -0.0000000351677353969     -0.0000000245548313792     -0.0000000146448048501     -0.0000000065474846021     -0.0000000007352909142     0.0000000027637790380     0.0000000041671831535     0.0000000038353930378     0.0000000022490936253     -0.0000000000001036421 
    0.0000000000000533496     -0.0000000016319460657     -0.0000000025772274981     -0.0000000021987947697     0.0000000000461595279     0.0000000045667335310     0.0000000115835475000     0.0000000210167805735     0.0000000323012967883     0.0000000442087617824     0.0000000548332441762     0.0000000618536549793     0.0000000630508967682     0.0000000569349553146     0.0000000432837283328     0.0000000234056772046     -0.0000000000012876462     -0.0000000234082475771     -0.0000000432862900179     -0.0000000569375221272     -0.0000000630535057640     -0.0000000618563566559     -0.0000000548360743166     -0.0000000442117076516     -0.0000000323042788098     -0.0000000210196611944     -0.0000000115861605240     -0.0000000045689182844     -0.0000000000477916509     0.0000000021977727381     0.0000000025767743097     0.0000000016319027275     0.0000000000000533496 
    0.0000000000000939030     -0.0000000013194172830     -0.0000000019278464410     -0.0000000011426410373     0.0000000016426689822     0.0000000068890837204     0.0000000148227640230     0.0000000253124337096     0.0000000377069663512     0.0000000506881744439     0.0000000622556620722     0.0000000699459162369     0.0000000713061185134     0.0000000645500819713     0.0000000492324094942     0.0000000266914227664     -0.0000000000008631188     -0.0000000266931432697     -0.0000000492341178523     -0.0000000645517860375     -0.0000000713078442586     -0.0000000699476993107     -0.0000000622575259499     -0.0000000506901059344     -0.0000000377089047603     -0.0000000253142812525     -0.0000000148244097881     -0.0000000068904270563     -0.0000000016436362350     0.0000000011420810616     0.0000000019276634759     0.0000000013195056824     0.0000000000000939030 
    0.0000000000000631505     -0.0000000011716914734     -0.0000000016124203013     -0.0000000006071837515     0.0000000024929131629     0.0000000081821839074     0.0000000166886390815     0.0000000278452862896     0.0000000409459677539     0.0000000546232627805     0.0000000668324549217     0.0000000750307751264     0.0000000766055452001     0.0000000695414756072     0.0000000531986487281     0.0000000289065591102     -0.0000000000004334528     -0.0000000289074221852     -0.0000000531995031949     -0.0000000695423246785     -0.0000000766064019798     -0.0000000750316578006     -0.0000000668333750551     -0.0000000546242127241     -0.0000000409469157305     -0.0000000278461827382     -0.0000000166894295340     -0.0000000081828204469     -0.0000000024933614787     0.0000000006069379164     0.0000000016123618440     0.0000000011717681764     0.0000000000000631505 
    0.0000000000000000000     -0.0000000011279685469     -0.0000000015170921467     -0.0000000004408320300     0.0000000027641707280     0.0000000086032150279     0.0000000173044414673     0.0000000286882894829     0.0000000420301333536     0.0000000559475752035     0.0000000683839429232     0.0000000767715544404     0.0000000784406643270     0.0000000712892166945     0.0000000545999813972     0.0000000296938106299     -0.0000000000000000000     -0.0000000296938106299     -0.0000000545999813972     -0.0000000712892166945     -0.0000000784406643270     -0.0000000767715544404     -0.0000000683839429232     -0.0000000559475752035     -0.0000000420301333536     -0.0000000286882894829     -0.0000000173044414673     -0.0000000086032150279     -0.0000000027641707280     0.0000000004408320300     0.0000000015170921467     0.0000000011279685469     0.0000000000000000000 
    -0.0000000000000631505     -0.0000000011717681764     -0.0000000016123618440     -0.0000000006069379164     0.0000000024933614787     0.0000000081828204469     0.0000000166894295340     0.0000000278461827382     0.0000000409469157305     0.0000000546242127241     0.0000000668333750551     0.0000000750316578006     0.0000000766064019798     0.0000000695423246785     0.0000000531995031949     0.0000000289074221852     0.0000000000004334528     -0.0000000289065591102     -0.0000000531986487281     -0.0000000695414756072     -0.0000000766055452001     -0.0000000750307751264     -0.0000000668324549217     -0.0000000546232627805     -0.0000000409459677539     -0.0000000278452862896     -0.0000000166886390815     -0.0000000081821839074     -0.0000000024929131629     0.0000000006071837515     0.0000000016124203013     0.0000000011716914734     -0.0000000000000631505 
    -0.0000000000000939030     -0.0000000013195056824     -0.0000000019276634759     -0.0000000011420810616     0.0000000016436362350     0.0000000068904270563     0.0000000148244097881     0.0000000253142812525     0.0000000377089047603     0.0000000506901059344     0.0000000622575259499     0.0000000699476993107     0.0000000713078442586     0.0000000645517860375     0.0000000492341178523     0.0000000266931432697     0.0000000000008631188     -0.0000000266914227664     -0.0000000492324094942     -0.0000000645500819713     -0.0000000713061185134     -0.0000000699459162369     -0.0000000622556620722     -0.0000000506881744439     -0.0000000377069663512     -0.0000000253124337096     -0.0000000148227640230     -0.0000000068890837204     -0.0000000016426689822     0.0000000011426410373     0.0000000019278464410     0.0000000013194172830     -0.0000000000000939030 
    -0.0000000000000533496     -0.0000000016319027275     -0.0000000025767743097     -0.0000000021977727381     0.0000000000477916509     0.0000000045689182844     0.0000000115861605240     0.0000000210196611944     0.0000000323042788098     0.0000000442117076516     0.0000000548360743166     0.0000000618563566559     0.0000000630535057640     0.0000000569375221272     0.0000000432862900179     0.0000000234082475771     0.0000000000012876462     -0.0000000234056772046     -0.0000000432837283328     -0.0000000569349553146     -0.0000000630508967682     -0.0000000618536549793     -0.0000000548332441762     -0.0000000442087617824     -0.0000000323012967883     -0.0000000210167805735     -0.0000000115835475000     -0.0000000045667335310     -0.0000000000461595279     0.0000000021987947697     0.0000000025772274981     0.0000000016319460657     -0.0000000000000533496 
    0.0000000000001036421     -0.0000000022490936253     -0.0000000038353930378     -0.0000000041671831535     -0.0000000027637790380     0.0000000007352909142     0.0000000065474846021     0.0000000146448048501     0.0000000245548313792     0.0000000351677353969     0.0000000447285863061     0.0000000511252460729     0.0000000524140530789     0.0000000473911182081     0.0000000359991872965     0.0000000194443515258     0.0000000000017065966     -0.0000000194409404726     -0.0000000359957767228     -0.0000000473876887063     -0.0000000524105604390     -0.0000000511216293746     -0.0000000447247961254     -0.0000000351637718128     -0.0000000245507714303     -0.0000000146408047566     -0.0000000065437567116     -0.0000000007320640613     0.0000000027663093218     0.0000000041689115175     0.0000000038363581141     0.0000000022495043100     0.0000000000001036421 
    0.0000000000004044113     -0.0000000034427575080     -0.0000000062631084321     -0.0000000078940985459     -0.0000000078548613237     -0.0000000057617910239     -0.0000000013665991217     0.0000000053291518915     0.0000000138883958167     0.0000000232860702837     0.0000000319400638887     0.0000000379997052652     0.0000000398188580931     0.0000000364307026139     0.0000000278437438834     0.0000000150830205563     0.0000000000021151498     -0.0000000150787894664     -0.0000000278395051684     -0.0000000364264333155     -0.0000000398145109938     -0.0000000379952121849     -0.0000000319353570705     -0.0000000232811185237     -0.0000000138832426550     -0.0000000053239408438     0.0000000013716248205     0.0000000057663236124     0.0000000078586020253     0.0000000078968575121     0.0000000062648975343     0.0000000034438305347     0.0000000000004044113 
    0.0000000000007294940     -0.0000000060567701052     -0.0000000111985393307     -0.0000000149203940440     -0.0000000172495736099     -0.0000000172031381620     -0.0000000143528631150     -0.0000000087418883847     -0.0000000009651698320     0.0000000078527344632     0.0000000162181169347     0.0000000225483422269     0.0000000255148590638     0.0000000243570451888     0.0000000190761043335     0.0000000104688127517     0.0000000000024990657     -0.0000000104638126276     -0.0000000190710931457     -0.0000000243519983517     -0.0000000255097270691     -0.0000000225430473011     -0.0000000162125633584     -0.0000000078468390465     0.0000000009714268778     0.0000000087484043604     0.0000000143593741903     0.0000000172092394921     0.0000000172548216147     0.0000000149244673522     0.0000000112013471104     0.0000000060585971437     0.0000000000007294940 
    0.0000000000004180301     -0.0000000133473672620     -0.0000000256010051539     -0.0000000347955970092     -0.0000000388189567582     -0.0000000380266198345     -0.0000000361875627534     -0.0000000307560198538     -0.0000000222845293006     -0.0000000124699137725     -0.0000000030090881262     0.0000000046976634407     0.0000000096667222121     0.0000000113831838787     0.0000000098576558313     0.0000000056818659625     0.0000000000028339147     -0.0000000056761976416     -0.0000000098519795593     -0.0000000113774733964     -0.0000000096609210276     -0.0000000046916752804     0.0000000030153990751     0.0000000124766963961     0.0000000222918786105     0.0000000307638779348     0.0000000361956343146     0.0000000380343497259     0.0000000388255042707     0.0000000348003398455     0.0000000256038311868     0.0000000133487423384     0.0000000000004180301 
    -0.0000000000008713270     -0.0000000245901502774     -0.0000000500718542994     -0.0000000736478660293     -0.0000000887704984757     -0.0000000896489792351     -0.0000000777444763206     -0.0000000653832305684     -0.0000000534657746706     -0.0000000397047038828     -0.0000000266369544383     -0.0000000157122907513     -0.0000000075314748030     -0.0000000022190499553     0.0000000003955166845     0.0000000008245553627     0.0000000000030890566     -0.0000000008183805707     -0.0000000003893422340     0.0000000022252538501     0.0000000075377791993     0.0000000157188212047     0.0000000266438943831     0.0000000397122637581     0.0000000534741028791     0.0000000653922763444     0.0000000777537130397     0.0000000896573046483     0.0000000887768398552     0.0000000736515367600     0.0000000500728307398     0.0000000245891382369     -0.0000000000008713270 
    -0.0000000000030900295     -0.0000000365197818142     -0.0000000796109125398     -0.0000001271035985143     -0.0000001663430616670     -0.0000001815206579149     -0.0000001655772512330     -0.0000001288998416730     -0.0000000985707869360     -0.0000000763038413918     -0.0000000557596538218     -0.0000000388811442821     -0.0000000258357562701     -0.0000000160918263821     -0.0000000090215717526     -0.0000000039522222147     0.0000000000032332633     0.0000000039586807953     0.0000000090280199179     0.0000000160982987172     0.0000000258423426863     0.0000000388880036251     0.0000000557670112871     0.0000000763119398608     0.0000000985797685292     0.0000001289093610529     0.0000001655862080671     0.0000001815277719013     0.0000001663472017029     0.0000001271041551923     0.0000000796080564377     0.0000000365144855235     -0.0000000000030900295 
    -0.0000000000057330221     -0.0000000444406910119     -0.0000001061806586553     -0.0000001860491133666     -0.0000002637275141147     -0.0000003088295248132     -0.0000003007060127889     -0.0000002440357205960     -0.0000001709002221917     -0.0000001243720509847     -0.0000000913059802877     -0.0000000649501813523     -0.0000000449958563215     -0.0000000298804787564     -0.0000000181005317509     -0.0000000084907501667     0.0000000000032387498     0.0000000084972160734     0.0000000181069788777     0.0000000298869447248     0.0000000450024454524     0.0000000649570758651     0.0000000913134230263     0.0000001243802667269     0.0000001709091229022     0.0000002440443321899     0.0000003007130198264     0.0000003088335882267     0.0000002637276387951     0.0000001860449689544     0.0000001061727174396     0.0000000444301480833     -0.0000000000057330221 
    -0.0000000000079849431     -0.0000000437690834765     -0.0000001210081445013     -0.0000002385730594870     -0.0000003676196742251     -0.0000004588508372236     -0.0000004725753030216     -0.0000004039276074692     -0.0000002882609967203     -0.0000001864149139789     -0.0000001333660914315     -0.0000000937469373364     -0.0000000647299386940     -0.0000000433070712181     -0.0000000266313510584     -0.0000000126801877378     0.0000000000030835627     0.0000000126863418108     0.0000000266374818834     0.0000000433132145439     0.0000000647361999120     0.0000000937534984411     0.0000001333731754079     0.0000001864226528054     0.0000002882687342523     0.0000004039340878369     0.0000004725790918331     0.0000004588507018356     0.0000003676149655749     0.0000002385638946587     0.0000001209953361344     0.0000000437539227545     -0.0000000000079849431 
    -0.0000000000090879895     -0.0000000323107862769     -0.0000001184541573913     -0.0000002742481289499     -0.0000004626905350926     -0.0000006128917877204     -0.0000006616811930605     -0.0000005908706533133     -0.0000004375288994209     -0.0000002756859399011     -0.0000001803086278035     -0.0000001243352425450     -0.0000000845220081671     -0.0000000560960678035     -0.0000000344708378739     -0.0000000164578225994     0.0000000000027547221     0.0000000164633199292     0.0000000344763119249     0.0000000561015469091     0.0000000845275824974     0.0000001243410661176     0.0000001803148683837     0.0000002756924617442     0.0000004375347135575     0.0000005908743949119     0.0000006616814622034     0.0000006128876164568     0.0000004626817316156     0.0000002742352768768     0.0000001184383237557     0.0000000322931876679     -0.0000000000090879895 
    -0.0000000000086536045     -0.0000000120052648596     -0.0000000994780153561     -0.0000002889540845299     -0.0000005368981193257     -0.0000007510420619173     -0.0000008431097084290     -0.0000007791597246164     -0.0000005961321012594     -0.0000003803440737680     -0.0000002282929372801     -0.0000001545375320957     -0.0000001033014101183     -0.0000000677603548058     -0.0000000414107694043     -0.0000000197465292576     0.0000000000022532279     0.0000000197510262844     0.0000000414152468283     0.0000000677648305387     0.0000001033059480362     0.0000001545422398940     0.0000002282979111773     0.0000003803489145417     0.0000005961357942991     0.0000007791609864940     0.0000008431073459967     0.0000007510354466455     0.0000005368874493953     0.0000002889402324327     0.0000000994621003437     0.0000000119882781855     -0.0000000000086536045 
    -0.0000000000067265083     0.0000000111880509305     -0.0000000722008350411     -0.0000002870407962990     -0.0000005855388221489     -0.0000008575250371109     -0.0000009921511759562     -0.0000009401291499506     -0.0000007368378712631     -0.0000004785490364913     -0.0000002761925365072     -0.0000001808285463722     -0.0000001192685232124     -0.0000000774286534025     -0.0000000470464158094     -0.0000000223851683961     0.0000000000015986622     0.0000000223883596760     0.0000000470495934463     0.0000000774318258642     0.0000001192717268270     0.0000001808318413454     0.0000002761959410161     0.0000004785521078282     0.0000007368397880609     0.0000009401289171872     0.0000009921479415413     0.0000008575184760380     0.0000005855293000396     0.0000002870291643244     0.0000000721880169103     -0.0000000112013767488     -0.0000000000067265083 
    -0.0000000000036652166     0.0000000294753068625     -0.0000000486814167294     -0.0000002788480010943     -0.0000006110800561171     -0.0000009234346962749     -0.0000010893614480767     -0.0000010482730375640     -0.0000008337190711706     -0.0000005484009052809     -0.0000003130003096142     -0.0000001989931628385     -0.0000001301702773623     -0.0000000839390356071     -0.0000000507971365108     -0.0000000241288807656     0.0000000000008297767     0.0000000241305374915     0.0000000507987863919     0.0000000839406813086     0.0000001301719338914     0.0000001989948545891     0.0000003130020211531     0.0000005484023595467     0.0000008337198085438     0.0000010482725164282     0.0000010893592298717     0.0000009234306590831     0.0000006110744691865     0.0000002788413839883     0.0000000486742887087     -0.0000000294826069708     -0.0000000000036652166 
    -0.0000000000000000000     0.0000000364016708695     -0.0000000394560828371     -0.0000002746919495488     -0.0000006187440128422     -0.0000009455826312164     -0.0000011230325702336     -0.0000010863376797742     -0.0000008682486214990     -0.0000005736801492160     -0.0000003267660286955     -0.0000002055090417785     -0.0000001340628752017     -0.0000000862503560820     -0.0000000521221685090     -0.0000000247432197900     0.0000000000000000000     0.0000000247432197900     0.0000000521221685090     0.0000000862503560820     0.0000001340628752017     0.0000002055090417785     0.0000003267660286955     0.0000005736801492160     0.0000008682486214990     0.0000010863376797742     0.0000011230325702336     0.0000009455826312164     0.0000006187440128422     0.0000002746919495488     0.0000000394560828371     -0.0000000364016708695     -0.0000000000000000000 
    -0.0000000000000000000     -0.0000000141755879815     -0.0000000839173257705     -0.0000002311130136428     -0.0000004269421458462     -0.0000006035236162989     -0.0000006908946453495     -0.0000006565054485258     -0.0000005210166605769     -0.0000003436767958548     -0.0000001929174555925     -0.0000001160427399370     -0.0000000745067131074     -0.0000000473122747537     -0.0000000283441692795     -0.0000000133953541877     0.0000000000000000000     0.0000000133953541877     0.0000000283441692795     0.0000000473122747537     0.0000000745067131074     0.0000001160427399370     0.0000001929174555925     0.0000003436767958548     0.0000005210166605769     0.0000006565054485258     0.0000006908946453495     0.0000006035236162989     0.0000004269421458462     0.0000002311130136428     0.0000000839173257705     0.0000000141755879815     -0.0000000000000000000 
    0.0000000000039442891     -0.0000000169887241386     -0.0000000871921304379     -0.0000002310928890607     -0.0000004202179072640     -0.0000005888800811065     -0.0000006701428817642     -0.0000006336817063097     -0.0000005005198280421     -0.0000003286119251283     -0.0000001844482538476     -0.0000001122649972839     -0.0000000722746897773     -0.0000000460013554429     -0.0000000275993868759     -0.0000000130524424453     -0.0000000000008686160     0.0000000130507038720     0.0000000275976432517     0.0000000459995978045     0.0000000722728986546     0.0000001122631468663     0.0000001844463840811     0.0000003286103617508     0.0000005005190785256     0.0000006336823633708     0.0000006701454170306     0.0000005888846087441     0.0000004202241040176     0.0000002311001567717     0.0000000871998846388     0.0000000169966042609     0.0000000000039442891 
    0.0000000000072890631     -0.0000000241937177904     -0.0000000949611395330     -0.0000002289673733815     -0.0000003989557651440     -0.0000005455677538663     -0.0000006103038728301     -0.0000005688428575992     -0.0000004429795266823     -0.0000002869128996910     -0.0000001616598861532     -0.0000001017650109437     -0.0000000660485735283     -0.0000000423266618668     -0.0000000255020367959     -0.0000000120832737343     -0.0000000000016712435     0.0000000120799296105     0.0000000254986843662     0.0000000423232809232     0.0000000660451191392     0.0000001017614195003     0.0000001616561739419     0.0000002869096066929     0.0000004429775634610     0.0000005688433166970     0.0000006103076739237     0.0000005455752168004     0.0000003989664331052     0.0000002289802539586     0.0000000949751859234     0.0000000242082032970     0.0000000000072890631 
    0.0000000000094928651     -0.0000000326107757057     -0.0000001020888052289     -0.0000002198980849666     -0.0000003612029744421     -0.0000004762863531998     -0.0000005187424354020     -0.0000004723235077196     -0.0000003592910831745     -0.0000002280410751462     -0.0000001315241238247     -0.0000000866645451222     -0.0000000570079636112     -0.0000000369271429247     -0.0000000223881439377     -0.0000000106348531634     -0.0000000000023529601     0.0000000106301464926     0.0000000223834277459     0.0000000369223835483     0.0000000570030851002     0.0000000866594336030     0.0000001315187033336     0.0000002280358884982     0.0000003592872625139     0.0000004723224697821     0.0000005187454755487     0.0000004762941145814     0.0000003612151618469     0.0000002199136542936     0.0000001021064734897     0.0000000326294702508     0.0000000000094928651 
    0.0000000000101545928     -0.0000000385440904809     -0.0000001030065369699     -0.0000001995593699850     -0.0000003070950863233     -0.0000003874284910137     -0.0000004075425060361     -0.0000003593447016716     -0.0000002646532289873     -0.0000001647321543811     -0.0000001025288110473     -0.0000000694816027271     -0.0000000465072491497     -0.0000000305093493715     -0.0000000186157690586     -0.0000000088598088980     -0.0000000000028773076     0.0000000088540547225     0.0000000186100047983     0.0000000305035286574     0.0000000465012675079     0.0000000694752970641     0.0000001025220176481     0.0000001647251467520     0.0000002646471472000     0.0000003593410627160     0.0000004075428408366     0.0000003874338169761     0.0000003071055279352     0.0000001995741834391     0.0000001030244779063     0.0000000385638254969     0.0000000000101545928 
    0.0000000000091598767     -0.0000000394316495611     -0.0000000945490337073     -0.0000001672363030649     -0.0000002410465252202     -0.0000002894460540033     -0.0000002918560232685     -0.0000002469211624388     -0.0000001749612158662     -0.0000001096473675623     -0.0000000756259388868     -0.0000000522898259031     -0.0000000356075045736     -0.0000000235918064522     -0.0000000144292930159     -0.0000000068567021391     -0.0000000000032276783     0.0000000068502474817     0.0000000144228265208     0.0000000235852739527     0.0000000356007861706     0.0000000522827290478     0.0000000756182400535     0.0000001096390011815     0.0000001749530325097     0.0000002469145688388     0.0000002918525991641     0.0000002894471180731     0.0000002410527111242     0.0000001672473795958     0.0000000945640269543     0.0000000394491250816     0.0000000000091598767 
    0.0000000000068416682     -0.0000000348800120720     -0.0000000774208982150     -0.0000001267871308525     -0.0000001713954104962     -0.0000001949020400563     -0.0000001867285511278     -0.0000001501937499123     -0.0000001033271264598     -0.0000000716518289069     -0.0000000517822536794     -0.0000000363337284774     -0.0000000249146474690     -0.0000000164485858788     -0.0000000099457003719     -0.0000000046689508103     -0.0000000000034034741     0.0000000046621431139     0.0000000099388768534     0.0000000164416920264     0.0000000249075667206     0.0000000363262693469     0.0000000517741700606     0.0000000716429098441     0.0000001033176129176     0.0000001501847856745     0.0000001867215915858     0.0000001948985315042     0.0000001713963812449     0.0000001267928546765     0.0000000774307784652     0.0000000348927045555     0.0000000000068416682 
    0.0000000000039673031     -0.0000000265542954370     -0.0000000555642039486     -0.0000000850267961800     -0.0000001077117792968     -0.0000001151043989079     -0.0000001036929524168     -0.0000000794707585918     -0.0000000577374816237     -0.0000000441016120671     -0.0000000318989557084     -0.0000000221127818957     -0.0000000146950775731     -0.0000000092177652306     -0.0000000052354416990     -0.0000000023273199530     -0.0000000000034148874     0.0000000023204864868     0.0000000052285866222     0.0000000092108401191     0.0000000146879844761     0.0000000221053566664     0.0000000318909705237     0.0000000440928309038     0.0000000577277906636     0.0000000794607001605     0.0000001036837549991     0.0000001150974472858     0.0000001077082625515     0.0000000850273116398     0.0000000555684988588     0.0000000265612658454     0.0000000000039673031 
    0.0000000000014339886     -0.0000000171309069832     -0.0000000340864281745     -0.0000000488572082843     -0.0000000576563659807     -0.0000000573255055139     -0.0000000487427951235     -0.0000000389451075565     -0.0000000315639531620     -0.0000000234061119081     -0.0000000158688614525     -0.0000000096808297206     -0.0000000050764614963     -0.0000000020354212387     -0.0000000004051941900     0.0000000001107029541     -0.0000000000032799966     -0.0000000001172698455     0.0000000003986000993     0.0000000020287600791     0.0000000050696588533     0.0000000096737597575     0.0000000158613413289     0.0000000233979356837     0.0000000315549886840     0.0000000389354415007     0.0000000487331287803     0.0000000573170350922     0.0000000576502205591     0.0000000488540836112     0.0000000340863005354     0.0000000171329722686     0.0000000000014339886 
    -0.0000000000001495649     -0.0000000090807179848     -0.0000000171997876561     -0.0000000230090656959     -0.0000000252004817746     -0.0000000238920436268     -0.0000000218742553932     -0.0000000185908654048     -0.0000000137388280691     -0.0000000082765316287     -0.0000000031029151818     0.0000000010841849371     0.0000000038275752446     0.0000000049147017725     0.0000000043876307906     0.0000000025589048092     -0.0000000000030242894     -0.0000000025649620353     -0.0000000043937175325     -0.0000000049208508136     -0.0000000038338428352     -0.0000000010906636182     0.0000000030960939222     0.0000000082692243645     0.0000000137309503801     0.0000000185824954798     0.0000000218657198354     0.0000000238839883043     0.0000000251938293376     0.0000000230044512083     0.0000000171972993333     0.0000000090798270759     -0.0000000000001495649 
    -0.0000000000006688932     -0.0000000039427531594     -0.0000000071838653832     -0.0000000092816585561     -0.0000000104604078871     -0.0000000104255269814     -0.0000000088686015536     -0.0000000058755372506     -0.0000000017959297703     0.0000000027748664672     0.0000000070784756855     0.0000000103332557179     0.0000000119023704104     0.0000000114422627730     0.0000000089839987481     0.0000000049325939440     -0.0000000000026793145     -0.0000000049379601976     -0.0000000089893907540     -0.0000000114477088123     -0.0000000119079180620     -0.0000000103389773135     -0.0000000070844602418     -0.0000000027811897532     0.0000000017892570899     0.0000000058686296258     0.0000000088617369793     0.0000000104191257797     0.0000000104549287219     0.0000000092774565018     0.0000000071810542387     0.0000000039410137695     -0.0000000000006688932 
    -0.0000000000004253172     -0.0000000019929409345     -0.0000000036150715001     -0.0000000045522486721     -0.0000000045709032261     -0.0000000035125927506     -0.0000000012912769505     0.0000000020655539863     0.0000000063272785500     0.0000000109795118020     0.0000000152374989803     0.0000000181944140661     0.0000000190628723375     0.0000000174076534044     0.0000000132730075681     0.0000000071756843872     -0.0000000000022776613     -0.0000000071802434384     -0.0000000132775818624     -0.0000000174122675584     -0.0000000190675717073     -0.0000000181992620519     -0.0000000152425564039     -0.0000000109848013007     -0.0000000063327473834     -0.0000000020710508310     0.0000000012859998572     0.0000000035078448682     0.0000000045669852073     0.0000000045493542284     0.0000000036131907206     0.0000000019918120037     -0.0000000000004253172 
    -0.0000000000001277401     -0.0000000011870234935     -0.0000000020132514389     -0.0000000021736980653     -0.0000000014444509331     0.0000000003235421643     0.0000000032106148698     0.0000000071889094477     0.0000000120226120780     0.0000000171645063848     0.0000000217506100527     0.0000000247530884616     0.0000000252530247224     0.0000000227197493272     0.0000000171834629101     0.0000000092528900256     -0.0000000000018456200     -0.0000000092565795968     -0.0000000171871532585     -0.0000000227234601063     -0.0000000252567993141     -0.0000000247569851287     -0.0000000217546728692     -0.0000000171687271290     -0.0000000120269047225     -0.0000000071931117703     -0.0000000032145144867     -0.0000000003269150035     0.0000000014417960446     0.0000000021718667511     0.0000000020122076960     0.0000000011865557214     -0.0000000000001277401 
    0.0000000000000333409     -0.0000000007789936907     -0.0000000011988845219     -0.0000000009416655314     0.0000000002436072253     0.0000000025310174747     0.0000000060051650599     0.0000000106147378342     0.0000000160788295278     0.0000000217913381993     0.0000000268151661086     0.0000000300278584332     0.0000000303936013294     0.0000000272665031671     0.0000000206171114508     0.0000000111085358746     -0.0000000000013982651     -0.0000000111113261908     -0.0000000206198898113     -0.0000000272692827534     -0.0000000303964194754     -0.0000000300307652550     -0.0000000268181943878     -0.0000000217944688216     -0.0000000160819751831     -0.0000000106177562027     -0.0000000060078914431     -0.0000000025332976989     -0.0000000002453229510     0.0000000009405708286     0.0000000011983722660     0.0000000007789046030     0.0000000000000333409 
    0.0000000000000793392     -0.0000000005750141324     -0.0000000007846217225     -0.0000000002923076571     0.0000000011826457995     0.0000000038398665669     0.0000000077665828122     0.0000000128847442175     0.0000000188681831715     0.0000000250633125589     0.0000000304863320658     0.0000000339522237849     0.0000000343277416586     0.0000000308450579666     0.0000000233846850094     0.0000000126282203691     -0.0000000000009405674     -0.0000000126300938270     -0.0000000233865413869     -0.0000000308469041800     -0.0000000343296045197     -0.0000000339541399037     -0.0000000304883238687     -0.0000000250653627969     -0.0000000188702256212     -0.0000000128866776957     -0.0000000077682979406     -0.0000000038412682083     -0.0000000011836654193     0.0000000002917002501     0.0000000007843984518     0.0000000005750699490     0.0000000000000793392 
    0.0000000000000552275     -0.0000000004789010322     -0.0000000005847010954     0.0000000000334205601     0.0000000016761974004     0.0000000045591689244     0.0000000087696840505     0.0000000142104147559     0.0000000205253707995     0.0000000270339208499     0.0000000327301156706     0.0000000363953218323     0.0000000368301400591     0.0000000331708204048     0.0000000252161147281     0.0000000136458941670     -0.0000000000004734801     -0.0000000136468359213     -0.0000000252170443754     -0.0000000331717404980     -0.0000000368310643732     -0.0000000363962695082     -0.0000000327310981550     -0.0000000270349286168     -0.0000000205263692386     -0.0000000142113525354     -0.0000000087705075957     -0.0000000045598333942     -0.0000000016766713466     -0.0000000000336903142     0.0000000005846216720     0.0000000004789602736     0.0000000000000552275 
    0.0000000000000000000     -0.0000000004504144760     -0.0000000005243510837     0.0000000001342170168     0.0000000018328291630     0.0000000047921686829     0.0000000090992708122     0.0000000146499427043     0.0000000210780601972     0.0000000276945613381     0.0000000334874854646     0.0000000372279104779     0.0000000376928957094     0.0000000339820665271     0.0000000258611521962     0.0000000140066891075     -0.0000000000000000000     -0.0000000140066891075     -0.0000000258611521962     -0.0000000339820665271     -0.0000000376928957094     -0.0000000372279104779     -0.0000000334874854646     -0.0000000276945613381     -0.0000000210780601972     -0.0000000146499427043     -0.0000000090992708122     -0.0000000047921686829     -0.0000000018328291630     -0.0000000001342170168     0.0000000005243510837     0.0000000004504144760     0.0000000000000000000 
    -0.0000000000000552275     -0.0000000004789602736     -0.0000000005846216720     0.0000000000336903142     0.0000000016766713466     0.0000000045598333942     0.0000000087705075957     0.0000000142113525354     0.0000000205263692386     0.0000000270349286168     0.0000000327310981550     0.0000000363962695082     0.0000000368310643732     0.0000000331717404980     0.0000000252170443754     0.0000000136468359213     0.0000000000004734801     -0.0000000136458941670     -0.0000000252161147281     -0.0000000331708204048     -0.0000000368301400591     -0.0000000363953218323     -0.0000000327301156706     -0.0000000270339208499     -0.0000000205253707995     -0.0000000142104147559     -0.0000000087696840505     -0.0000000045591689244     -0.0000000016761974004     -0.0000000000334205601     0.0000000005847010954     0.0000000004789010322     -0.0000000000000552275 
    -0.0000000000000793392     -0.0000000005750699490     -0.0000000007843984518     -0.0000000002917002501     0.0000000011836654193     0.0000000038412682083     0.0000000077682979406     0.0000000128866776957     0.0000000188702256212     0.0000000250653627969     0.0000000304883238687     0.0000000339541399037     0.0000000343296045197     0.0000000308469041800     0.0000000233865413869     0.0000000126300938270     0.0000000000009405674     -0.0000000126282203691     -0.0000000233846850094     -0.0000000308450579666     -0.0000000343277416586     -0.0000000339522237849     -0.0000000304863320658     -0.0000000250633125589     -0.0000000188681831715     -0.0000000128847442175     -0.0000000077665828122     -0.0000000038398665669     -0.0000000011826457995     0.0000000002923076571     0.0000000007846217225     0.0000000005750141324     -0.0000000000000793392 
    -0.0000000000000333409     -0.0000000007789046030     -0.0000000011983722660     -0.0000000009405708286     0.0000000002453229510     0.0000000025332976989     0.0000000060078914431     0.0000000106177562027     0.0000000160819751831     0.0000000217944688216     0.0000000268181943878     0.0000000300307652550     0.0000000303964194754     0.0000000272692827534     0.0000000206198898113     0.0000000111113261908     0.0000000000013982651     -0.0000000111085358746     -0.0000000206171114508     -0.0000000272665031671     -0.0000000303936013294     -0.0000000300278584332     -0.0000000268151661086     -0.0000000217913381993     -0.0000000160788295278     -0.0000000106147378342     -0.0000000060051650599     -0.0000000025310174747     -0.0000000002436072253     0.0000000009416655314     0.0000000011988845219     0.0000000007789936907     -0.0000000000000333409 
    0.0000000000001277401     -0.0000000011865557214     -0.0000000020122076960     -0.0000000021718667511     -0.0000000014417960446     0.0000000003269150035     0.0000000032145144867     0.0000000071931117703     0.0000000120269047225     0.0000000171687271290     0.0000000217546728692     0.0000000247569851287     0.0000000252567993141     0.0000000227234601063     0.0000000171871532585     0.0000000092565795968     0.0000000000018456200     -0.0000000092528900256     -0.0000000171834629101     -0.0000000227197493272     -0.0000000252530247224     -0.0000000247530884616     -0.0000000217506100527     -0.0000000171645063848     -0.0000000120226120780     -0.0000000071889094477     -0.0000000032106148698     -0.0000000003235421643     0.0000000014444509331     0.0000000021736980653     0.0000000020132514389     0.0000000011870234935     0.0000000000001277401 
    0.0000000000004253172     -0.0000000019918120037     -0.0000000036131907206     -0.0000000045493542284     -0.0000000045669852073     -0.0000000035078448682     -0.0000000012859998572     0.0000000020710508310     0.0000000063327473834     0.0000000109848013007     0.0000000152425564039     0.0000000181992620519     0.0000000190675717073     0.0000000174122675584     0.0000000132775818624     0.0000000071802434384     0.0000000000022776613     -0.0000000071756843872     -0.0000000132730075681     -0.0000000174076534044     -0.0000000190628723375     -0.0000000181944140661     -0.0000000152374989803     -0.0000000109795118020     -0.0000000063272785500     -0.0000000020655539863     0.0000000012912769505     0.0000000035125927506     0.0000000045709032261     0.0000000045522486721     0.0000000036150715001     0.0000000019929409345     0.0000000000004253172 
    0.0000000000006688932     -0.0000000039410137695     -0.0000000071810542387     -0.0000000092774565018     -0.0000000104549287219     -0.0000000104191257797     -0.0000000088617369793     -0.0000000058686296258     -0.0000000017892570899     0.0000000027811897532     0.0000000070844602418     0.0000000103389773135     0.0000000119079180620     0.0000000114477088123     0.0000000089893907540     0.0000000049379601976     0.0000000000026793145     -0.0000000049325939440     -0.0000000089839987481     -0.0000000114422627730     -0.0000000119023704104     -0.0000000103332557179     -0.0000000070784756855     -0.0000000027748664672     0.0000000017959297703     0.0000000058755372506     0.0000000088686015536     0.0000000104255269814     0.0000000104604078871     0.0000000092816585561     0.0000000071838653832     0.0000000039427531594     0.0000000000006688932 
    0.0000000000001495649     -0.0000000090798270759     -0.0000000171972993333     -0.0000000230044512083     -0.0000000251938293376     -0.0000000238839883043     -0.0000000218657198354     -0.0000000185824954798     -0.0000000137309503801     -0.0000000082692243645     -0.0000000030960939222     0.0000000010906636182     0.0000000038338428352     0.0000000049208508136     0.0000000043937175325     0.0000000025649620353     0.0000000000030242894     -0.0000000025589048092     -0.0000000043876307906     -0.0000000049147017725     -0.0000000038275752446     -0.0000000010841849371     0.0000000031029151818     0.0000000082765316287     0.0000000137388280691     0.0000000185908654048     0.0000000218742553932     0.0000000238920436268     0.0000000252004817746     0.0000000230090656959     0.0000000171997876561     0.0000000090807179848     0.0000000000001495649 
    -0.0000000000014339886     -0.0000000171329722686     -0.0000000340863005354     -0.0000000488540836112     -0.0000000576502205591     -0.0000000573170350922     -0.0000000487331287803     -0.0000000389354415007     -0.0000000315549886840     -0.0000000233979356837     -0.0000000158613413289     -0.0000000096737597575     -0.0000000050696588533     -0.0000000020287600791     -0.0000000003986000993     0.0000000001172698455     0.0000000000032799966     -0.0000000001107029541     0.0000000004051941900     0.0000000020354212387     0.0000000050764614963     0.0000000096808297206     0.0000000158688614525     0.0000000234061119081     0.0000000315639531620     0.0000000389451075565     0.0000000487427951235     0.0000000573255055139     0.0000000576563659807     0.0000000488572082843     0.0000000340864281745     0.0000000171309069832     -0.0000000000014339886 
    -0.0000000000039673031     -0.0000000265612658454     -0.0000000555684988588     -0.0000000850273116398     -0.0000001077082625515     -0.0000001150974472858     -0.0000001036837549991     -0.0000000794607001605     -0.0000000577277906636     -0.0000000440928309038     -0.0000000318909705237     -0.0000000221053566664     -0.0000000146879844761     -0.0000000092108401191     -0.0000000052285866222     -0.0000000023204864868     0.0000000000034148874     0.0000000023273199530     0.0000000052354416990     0.0000000092177652306     0.0000000146950775731     0.0000000221127818957     0.0000000318989557084     0.0000000441016120671     0.0000000577374816237     0.0000000794707585918     0.0000001036929524168     0.0000001151043989079     0.0000001077117792968     0.0000000850267961800     0.0000000555642039486     0.0000000265542954370     -0.0000000000039673031 
    -0.0000000000068416682     -0.0000000348927045555     -0.0000000774307784652     -0.0000001267928546765     -0.0000001713963812449     -0.0000001948985315042     -0.0000001867215915858     -0.0000001501847856745     -0.0000001033176129176     -0.0000000716429098441     -0.0000000517741700606     -0.0000000363262693469     -0.0000000249075667206     -0.0000000164416920264     -0.0000000099388768534     -0.0000000046621431139     0.0000000000034034741     0.0000000046689508103     0.0000000099457003719     0.0000000164485858788     0.0000000249146474690     0.0000000363337284774     0.0000000517822536794     0.0000000716518289069     0.0000001033271264598     0.0000001501937499123     0.0000001867285511278     0.0000001949020400563     0.0000001713954104962     0.0000001267871308525     0.0000000774208982150     0.0000000348800120720     -0.0000000000068416682 
    -0.0000000000091598767     -0.0000000394491250816     -0.0000000945640269543     -0.0000001672473795958     -0.0000002410527111242     -0.0000002894471180731     -0.0000002918525991641     -0.0000002469145688388     -0.0000001749530325097     -0.0000001096390011815     -0.0000000756182400535     -0.0000000522827290478     -0.0000000356007861706     -0.0000000235852739527     -0.0000000144228265208     -0.0000000068502474817     0.0000000000032276783     0.0000000068567021391     0.0000000144292930159     0.0000000235918064522     0.0000000356075045736     0.0000000522898259031     0.0000000756259388868     0.0000001096473675623     0.0000001749612158662     0.0000002469211624388     0.0000002918560232685     0.0000002894460540033     0.0000002410465252202     0.0000001672363030649     0.0000000945490337073     0.0000000394316495611     -0.0000000000091598767 
    -0.0000000000101545928     -0.0000000385638254969     -0.0000001030244779063     -0.0000001995741834391     -0.0000003071055279352     -0.0000003874338169761     -0.0000004075428408366     -0.0000003593410627160     -0.0000002646471472000     -0.0000001647251467520     -0.0000001025220176481     -0.0000000694752970641     -0.0000000465012675079     -0.0000000305035286574     -0.0000000186100047983     -0.0000000088540547225     0.0000000000028773076     0.0000000088598088980     0.0000000186157690586     0.0000000305093493715     0.0000000465072491497     0.0000000694816027271     0.0000001025288110473     0.0000001647321543811     0.0000002646532289873     0.0000003593447016716     0.0000004075425060361     0.0000003874284910137     0.0000003070950863233     0.0000001995593699850     0.0000001030065369699     0.0000000385440904809     -0.0000000000101545928 
    -0.0000000000094928651     -0.0000000326294702508     -0.0000001021064734897     -0.0000002199136542936     -0.0000003612151618469     -0.0000004762941145814     -0.0000005187454755487     -0.0000004723224697821     -0.0000003592872625139     -0.0000002280358884982     -0.0000001315187033336     -0.0000000866594336030     -0.0000000570030851002     -0.0000000369223835483     -0.0000000223834277459     -0.0000000106301464926     0.0000000000023529601     0.0000000106348531634     0.0000000223881439377     0.0000000369271429247     0.0000000570079636112     0.0000000866645451222     0.0000001315241238247     0.0000002280410751462     0.0000003592910831745     0.0000004723235077196     0.0000005187424354020     0.0000004762863531998     0.0000003612029744421     0.0000002198980849665     0.0000001020888052289     0.0000000326107757057     -0.0000000000094928651 
    -0.0000000000072890631     -0.0000000242082032970     -0.0000000949751859234     -0.0000002289802539586     -0.0000003989664331052     -0.0000005455752168004     -0.0000006103076739237     -0.0000005688433166970     -0.0000004429775634610     -0.0000002869096066929     -0.0000001616561739419     -0.0000001017614195003     -0.0000000660451191392     -0.0000000423232809232     -0.0000000254986843662     -0.0000000120799296105     0.0000000000016712435     0.0000000120832737343     0.0000000255020367959     0.0000000423266618668     0.0000000660485735283     0.0000001017650109437     0.0000001616598861532     0.0000002869128996910     0.0000004429795266823     0.0000005688428575992     0.0000006103038728301     0.0000005455677538663     0.0000003989557651440     0.0000002289673733815     0.0000000949611395330     0.0000000241937177904     -0.0000000000072890631 
    -0.0000000000039442891     -0.0000000169966042609     -0.0000000871998846388     -0.0000002311001567717     -0.0000004202241040176     -0.0000005888846087441     -0.0000006701454170306     -0.0000006336823633708     -0.0000005005190785256     -0.0000003286103617508     -0.0000001844463840811     -0.0000001122631468663     -0.0000000722728986546     -0.0000000459995978045     -0.0000000275976432517     -0.0000000130507038720     0.0000000000008686160     0.0000000130524424453     0.0000000275993868759     0.0000000460013554429     0.0000000722746897773     0.0000001122649972839     0.0000001844482538476     0.0000003286119251283     0.0000005005198280421     0.0000006336817063097     0.0000006701428817642     0.0000005888800811065     0.0000004202179072640     0.0000002310928890607     0.0000000871921304379     0.0000000169887241386     -0.0000000000039442891 
    -0.0000000000000000000     -0.0000000141755879815     -0.0000000839173257705     -0.0000002311130136428     -0.0000004269421458462     -0.0000006035236162989     -0.0000006908946453495     -0.0000006565054485258     -0.0000005210166605769     -0.0000003436767958548     -0.0000001929174555925     -0.0000001160427399370     -0.0000000745067131074     -0.0000000473122747537     -0.0000000283441692795     -0.0000000133953541877     0.0000000000000000000     0.0000000133953541877     0.0000000283441692795     0.0000000473122747537     0.0000000745067131074     0.0000001160427399370     0.0000001929174555925     0.0000003436767958548     0.0000005210166605769     0.0000006565054485258     0.0000006908946453495     0.0000006035236162989     0.0000004269421458462     0.0000002311130136428     0.0000000839173257705     0.0000000141755879815     -0.0000000000000000000 
    0.0000000000000000000     0.0000000000000000000     0.0000000000000000000     0.0000000000000000000     0.0000000000000000000     0.0000000000000000000     0.0000000000000000000     0.0000000000000000000     -0.0000000000000000000     -0.0000000000000000000     -0.0000000000000000000     -0.0000000000000000000     -0.0000000000000000000     -0.0000000000000000000     0.0000000000000000000     -0.0000000000000000000     0.0000000000000000000     0.0000000000000000000     -0.0000000000000000000     -0.0000000000000000000     -0.0000000000000000000     -0.0000000000000000000     -0.0000000000000000000     -0.0000000000000000000     -0.0000000000000000000     0.0000000000000000000     0.0000000000000000000     0.0000000000000000000     0.0000000000000000000     0.0000000000000000000     0.0000000000000000000     0.0000000000000000000     0.0000000000000000000 
    0.0000000000040349037     0.0000000000040346404     0.0000000000039801513     0.0000000000037417978     0.0000000000032000205     0.0000000000023456221     0.0000000000013202655     0.0000000000003505688     -0.0000000000003777785     -0.0000000000008011458     -0.0000000000009626677     -0.0000000000009534274     -0.0000000000009193814     -0.0000000000008985233     -0.0000000000008882191     -0.0000000000008835410     -0.0000000000008821165     -0.0000000000008835410     -0.0000000000008882191     -0.0000000000008985233     -0.0000000000009193814     -0.0000000000009534274     -0.0000000000009626677     -0.0000000000008011458     -0.0000000000003777785     0.0000000000003505688     0.0000000000013202655     0.0000000000023456221     0.0000000000032000205     0.0000000000037417978     0.0000000000039801513     0.0000000000040346404     0.0000000000040349037 
    0.0000000000074734851     0.0000000000074336452     0.0000000000072272245     0.0000000000066494866     0.0000000000055270854     0.0000000000038839312     0.0000000000019964207     0.0000000000002676624     -0.0000000000009899549     -0.0000000000016848238     -0.0000000000019092496     -0.0000000000018477792     -0.0000000000017710409     -0.0000000000017267266     -0.0000000000017064216     -0.0000000000016983283     -0.0000000000016961310     -0.0000000000016983283     -0.0000000000017064216     -0.0000000000017267266     -0.0000000000017710409     -0.0000000000018477792     -0.0000000000019092496     -0.0000000000016848238     -0.0000000000009899549     0.0000000000002676624     0.0000000000019964207     0.0000000000038839312     0.0000000000055270854     0.0000000000066494866     0.0000000000072272245     0.0000000000074336452     0.0000000000074734851 
    0.0000000000097723419     0.0000000000096326877     0.0000000000091295955     0.0000000000080765891     0.0000000000063535322     0.0000000000040782163     0.0000000000016379806     -0.0000000000004786654     -0.0000000000019304745     -0.0000000000026513012     -0.0000000000027859760     -0.0000000000026255126     -0.0000000000024978863     -0.0000000000024282508     -0.0000000000023987050     -0.0000000000023887754     -0.0000000000023865920     -0.0000000000023887754     -0.0000000000023987050     -0.0000000000024282508     -0.0000000000024978863     -0.0000000000026255126     -0.0000000000027859760     -0.0000000000026513012     -0.0000000000019304745     -0.0000000000004786654     0.0000000000016379806     0.0000000000040782163     0.0000000000063535322     0.0000000000080765891     0.0000000000091295955     0.0000000000096326877     0.0000000000097723419 
    0.0000000000105168640     0.0000000000102314105     0.0000000000093320197     0.0000000000077461145     0.0000000000055067378     0.0000000000028667943     0.0000000000002766431     -0.0000000000017968408     -0.0000000000030826592     -0.0000000000035839806     -0.0000000000034910739     -0.0000000000032350286     -0.0000000000030600435     -0.0000000000029681211     -0.0000000000029309011     -0.0000000000029200088     -0.0000000000029181794     -0.0000000000029200088     -0.0000000000029309011     -0.0000000000029681211     -0.0000000000030600435     -0.0000000000032350286     -0.0000000000034910739     -0.0000000000035839806     -0.0000000000030826593     -0.0000000000017968408     0.0000000000002766431     0.0000000000028667943     0.0000000000055067378     0.0000000000077461145     0.0000000000093320197     0.0000000000102314105     0.0000000000105168640 
    0.0000000000095675616     0.0000000000091403454     0.0000000000078790452     0.0000000000058758067     0.0000000000033567752     0.0000000000007012504     -0.0000000000016409058     -0.0000000000033092366     -0.0000000000041627294     -0.0000000000042868135     -0.0000000000039537421     -0.0000000000036392442     -0.0000000000034364970     -0.0000000000033317962     -0.0000000000032895293     -0.0000000000032775230     -0.0000000000032757265     -0.0000000000032775230     -0.0000000000032895293     -0.0000000000033317962     -0.0000000000034364970     -0.0000000000036392442     -0.0000000000039537421     -0.0000000000042868135     -0.0000000000041627294     -0.0000000000033092366     -0.0000000000016409058     0.0000000000007012504     0.0000000000033567752     0.0000000000058758067     0.0000000000078790452     0.0000000000091403454     0.0000000000095675616 
    0.0000000000072347538     0.0000000000067281951     0.0000000000052869352     0.0000000000031474552     0.0000000000006870879     -0.0000000000016472174     -0.0000000000034621642     -0.0000000000045354738     -0.0000000000048567066     -0.0000000000045788841     -0.0000000000041506934     -0.0000000000038254307     -0.0000000000036237170     -0.0000000000035193251     -0.0000000000034753079     -0.0000000000034614394     -0.0000000000034589375     -0.0000000000034614394     -0.0000000000034753079     -0.0000000000035193251     -0.0000000000036237170     -0.0000000000038254307     -0.0000000000041506934     -0.0000000000045788841     -0.0000000000048567066     -0.0000000000045354738     -0.0000000000034621642     -0.0000000000016472174     0.0000000000006870879     0.0000000000031474552     0.0000000000052869352     0.0000000000067281951     0.0000000000072347538 
    0.0000000000042854328     0.0000000000037895888     0.0000000000024113394     0.0000000000004578181     -0.0000000000016372286     -0.0000000000034364646     -0.0000000000046313951     -0.0000000000051156754     -0.0000000000049649601     -0.0000000000045070196     -0.0000000000040997930     -0.0000000000038092525     -0.0000000000036330519     -0.0000000000035398457     -0.0000000000034969878     -0.0000000000034806973     -0.0000000000034768552     -0.0000000000034806973     -0.0000000000034969878     -0.0000000000035398457     -0.0000000000036330519     -0.0000000000038092525     -0.0000000000040997930     -0.0000000000045070196     -0.0000000000049649601     -0.0000000000051156754     -0.0000000000046313951     -0.0000000000034364646     -0.0000000000016372286     0.0000000000004578181     0.0000000000024113394     0.0000000000037895888     0.0000000000042854328 
    0.0000000000016437481     0.0000000000012298451     0.0000000000000976193     -0.0000000000014542365     -0.0000000000030268330     -0.0000000000042504956     -0.0000000000049000175     -0.0000000000049368352     -0.0000000000045908321     -0.0000000000041937890     -0.0000000000038597089     -0.0000000000036276976     -0.0000000000034869947     -0.0000000000034092738     -0.0000000000033693293     -0.0000000000033510268     -0.0000000000033458296     -0.0000000000033510268     -0.0000000000033693293     -0.0000000000034092738     -0.0000000000034869947     -0.0000000000036276976     -0.0000000000038597089     -0.0000000000041937890     -0.0000000000045908321     -0.0000000000049368352     -0.0000000000049000175     -0.0000000000042504956     -0.0000000000030268330     -0.0000000000014542365     0.0000000000000976193     0.0000000000012298451     0.0000000000016437481 
    -0.0000000000000444012     -0.0000000000003495749     -0.0000000000011741169     -0.0000000000022743258     -0.0000000000033350133     -0.0000000000040763417     -0.0000000000043450344     -0.0000000000042717205     -0.0000000000040293251     -0.0000000000037439409     -0.0000000000034986555     -0.0000000000033240115     -0.0000000000032143455     -0.0000000000031503206     -0.0000000000031143796     -0.0000000000030959369     -0.0000000000030902178     -0.0000000000030959369     -0.0000000000031143796     -0.0000000000031503206     -0.0000000000032143455     -0.0000000000033240115     -0.0000000000034986555     -0.0000000000037439409     -0.0000000000040293251     -0.0000000000042717205     -0.0000000000043450344     -0.0000000000040763417     -0.0000000000033350133     -0.0000000000022743258     -0.0000000000011741169     -0.0000000000003495749     -0.0000000000000444012 
    -0.0000000000006394303     -0.0000000000008461634     -0.0000000000013981504     -0.0000000000021158899     -0.0000000000027756194     -0.0000000000032493155     -0.0000000000034912243     -0.0000000000035202710     -0.0000000000034076550     -0.0000000000032354772     -0.0000000000030667915     -0.0000000000029345605     -0.0000000000028456425     -0.0000000000027919685     -0.0000000000027617733     -0.0000000000027463643     -0.0000000000027415814     -0.0000000000027463643     -0.0000000000027617733     -0.0000000000027919685     -0.0000000000028456425     -0.0000000000029345605     -0.0000000000030667915     -0.0000000000032354772     -0.0000000000034076550     -0.0000000000035202710     -0.0000000000034912243     -0.0000000000032493155     -0.0000000000027756194     -0.0000000000021158899     -0.0000000000013981504     -0.0000000000008461634     -0.0000000000006394303 
    -0.0000000000004294096     -0.0000000000005710443     -0.0000000000009532726     -0.0000000000014678314     -0.0000000000019870887     -0.0000000000024089981     -0.0000000000026804489     -0.0000000000027969464     -0.0000000000027886631     -0.0000000000027031217     -0.0000000000025893646     -0.0000000000024852782     -0.0000000000024103520     -0.0000000000023663264     -0.0000000000023447069     -0.0000000000023357237     -0.0000000000023333374     -0.0000000000023357237     -0.0000000000023447069     -0.0000000000023663264     -0.0000000000024103520     -0.0000000000024852782     -0.0000000000025893646     -0.0000000000027031217     -0.0000000000027886631     -0.0000000000027969464     -0.0000000000026804489     -0.0000000000024089981     -0.0000000000019870887     -0.0000000000014678314     -0.0000000000009532726     -0.0000000000005710443     -0.0000000000004294096 
    -0.0000000000001341700     -0.0000000000002418820     -0.0000000000005336537     -0.0000000000009316846     -0.0000000000013472971     -0.0000000000017101854     -0.0000000000019784200     -0.0000000000021355384     -0.0000000000021863892     -0.0000000000021548817     -0.0000000000020785606     -0.0000000000019965442     -0.0000000000019355798     -0.0000000000019033199     -0.0000000000018926783     -0.0000000000018919769     -0.0000000000018926988     -0.0000000000018919769     -0.0000000000018926783     -0.0000000000019033199     -0.0000000000019355798     -0.0000000000019965442     -0.0000000000020785606     -0.0000000000021548817     -0.0000000000021863892     -0.0000000000021355384     -0.0000000000019784200     -0.0000000000017101854     -0.0000000000013472971     -0.0000000000009316846     -0.0000000000005336537     -0.0000000000002418820     -0.0000000000001341700 
    0.0000000000000276448     -0.0000000000000512509     -0.0000000000002651725     -0.0000000000005587683     -0.0000000000008712064     -0.0000000000011556411     -0.0000000000013820878     -0.0000000000015326556     -0.0000000000016010829     -0.0000000000015973491     -0.0000000000015484018     -0.0000000000014886277     -0.0000000000014446644     -0.0000000000014257238     -0.0000000000014255738     -0.0000000000014319903     -0.0000000000014352789     -0.0000000000014319903     -0.0000000000014255738     -0.0000000000014257238     -0.0000000000014446644     -0.0000000000014886277     -0.0000000000015484018     -0.0000000000015973491     -0.0000000000016010829     -0.0000000000015326556     -0.0000000000013820878     -0.0000000000011556411     -0.0000000000008712064     -0.0000000000005587683     -0.0000000000002651725     -0.0000000000000512509     0.0000000000000276448 
    0.0000000000000750746     0.0000000000000230325     -0.0000000000001178716     -0.0000000000003111879     -0.0000000000005181740     -0.0000000000007103018     -0.0000000000008691428     -0.0000000000009814268     -0.0000000000010392487     -0.0000000000010457583     -0.0000000000010180300     -0.0000000000009808433     -0.0000000000009546365     -0.0000000000009469222     -0.0000000000009528218     -0.0000000000009620942     -0.0000000000009662279     -0.0000000000009620942     -0.0000000000009528218     -0.0000000000009469222     -0.0000000000009546365     -0.0000000000009808433     -0.0000000000010180300     -0.0000000000010457583     -0.0000000000010392487     -0.0000000000009814268     -0.0000000000008691428     -0.0000000000007103018     -0.0000000000005181740     -0.0000000000003111879     -0.0000000000001178716     0.0000000000000230325     0.0000000000000750746 
    0.0000000000000528703     0.0000000000000269769     -0.0000000000000429752     -0.0000000000001386615     -0.0000000000002410696     -0.0000000000003367776     -0.0000000000004173047     -0.0000000000004759720     -0.0000000000005079851     -0.0000000000005139536     -0.0000000000005020342     -0.0000000000004849537     -0.0000000000004735454     -0.0000000000004718829     -0.0000000000004772590     -0.0000000000004838431     -0.0000000000004866589     -0.0000000000004838431     -0.0000000000004772590     -0.0000000000004718829     -0.0000000000004735454     -0.0000000000004849537     -0.0000000000005020342     -0.0000000000005139536     -0.0000000000005079851     -0.0000000000004759720     -0.0000000000004173047     -0.0000000000003367776     -0.0000000000002410696     -0.0000000000001386615     -0.0000000000000429752     0.0000000000000269769     0.0000000000000528703 
    -0.0000000000000000000     -0.0000000000000000000     -0.0000000000000000000     -0.0000000000000000000     -0.0000000000000000000     0.0000000000000000000     0.0000000000000000000     -0.0000000000000000000     0.0000000000000000000     0.0000000000000000000     0.0000000000000000000     0.0000000000000000000     0.0000000000000000000     -0.0000000000000000000     -0.0000000000000000000     -0.0000000000000000000     -0.0000000000000000000     -0.0000000000000000000     -0.0000000000000000000     -0.0000000000000000000     0.0000000000000000000     0.0000000000000000000     0.0000000000000000000     0.0000000000000000000     0.0000000000000000000     0.0000000000000000000     0.0000000000000000000     0.0000000000000000000     0.0000000000000000000     0.0000000000000000000     -0.0000000000000000000     -0.0000000000000000000     -0.0000000000000000000 
    -0.0000000000000528703     -0.0000000000000269769     0.0000000000000429752     0.0000000000001386615     0.0000000000002410696     0.0000000000003367776     0.0000000000004173047     0.0000000000004759720     0.0000000000005079851     0.0000000000005139536     0.0000000000005020342     0.0000000000004849537     0.0000000000004735454     0.0000000000004718829     0.0000000000004772590     0.0000000000004838431     0.0000000000004866589     0.0000000000004838431     0.0000000000004772590     0.0000000000004718829     0.0000000000004735454     0.0000000000004849537     0.0000000000005020342     0.0000000000005139536     0.0000000000005079851     0.0000000000004759720     0.0000000000004173047     0.0000000000003367776     0.0000000000002410696     0.0000000000001386615     0.0000000000000429752     -0.0000000000000269769     -0.0000000000000528703 
    -0.0000000000000750746     -0.0000000000000230325     0.0000000000001178716     0.0000000000003111879     0.0000000000005181740     0.0000000000007103018     0.0000000000008691428     0.0000000000009814268     0.0000000000010392487     0.0000000000010457583     0.0000000000010180300     0.0000000000009808433     0.0000000000009546365     0.0000000000009469222     0.0000000000009528218     0.0000000000009620942     0.0000000000009662279     0.0000000000009620942     0.0000000000009528218     0.0000000000009469222     0.0000000000009546365     0.0000000000009808433     0.0000000000010180300     0.0000000000010457583     0.0000000000010392487     0.0000000000009814268     0.0000000000008691428     0.0000000000007103018     0.0000000000005181740     0.0000000000003111879     0.0000000000001178716     -0.0000000000000230325     -0.0000000000000750746 
    -0.0000000000000276448     0.0000000000000512509     0.0000000000002651725     0.0000000000005587683     0.0000000000008712064     0.0000000000011556411     0.0000000000013820878     0.0000000000015326556     0.0000000000016010829     0.0000000000015973491     0.0000000000015484018     0.0000000000014886277     0.0000000000014446644     0.0000000000014257238     0.0000000000014255738     0.0000000000014319903     0.0000000000014352789     0.0000000000014319903     0.0000000000014255738     0.0000000000014257238     0.0000000000014446644     0.0000000000014886277     0.0000000000015484018     0.0000000000015973491     0.0000000000016010829     0.0000000000015326556     0.0000000000013820878     0.0000000000011556411     0.0000000000008712064     0.0000000000005587683     0.0000000000002651725     0.0000000000000512509     -0.0000000000000276448 
    0.0000000000001341700     0.0000000000002418820     0.0000000000005336537     0.0000000000009316846     0.0000000000013472971     0.0000000000017101854     0.0000000000019784200     0.0000000000021355384     0.0000000000021863892     0.0000000000021548817     0.0000000000020785606     0.0000000000019965442     0.0000000000019355798     0.0000000000019033199     0.0000000000018926783     0.0000000000018919769     0.0000000000018926988     0.0000000000018919769     0.0000000000018926783     0.0000000000019033199     0.0000000000019355798     0.0000000000019965442     0.0000000000020785606     0.0000000000021548817     0.0000000000021863892     0.0000000000021355384     0.0000000000019784200     0.0000000000017101854     0.0000000000013472971     0.0000000000009316846     0.0000000000005336537     0.0000000000002418820     0.0000000000001341700 
    0.0000000000004294096     0.0000000000005710443     0.0000000000009532726     0.0000000000014678314     0.0000000000019870887     0.0000000000024089981     0.0000000000026804489     0.0000000000027969464     0.0000000000027886631     0.0000000000027031217     0.0000000000025893646     0.0000000000024852782     0.0000000000024103520     0.0000000000023663264     0.0000000000023447069     0.0000000000023357237     0.0000000000023333374     0.0000000000023357237     0.0000000000023447069     0.0000000000023663264     0.0000000000024103520     0.0000000000024852782     0.0000000000025893646     0.0000000000027031217     0.0000000000027886631     0.0000000000027969464     0.0000000000026804489     0.0000000000024089981     0.0000000000019870887     0.0000000000014678314     0.0000000000009532726     0.0000000000005710443     0.0000000000004294096 
    0.0000000000006394303     0.0000000000008461634     0.0000000000013981504     0.0000000000021158899     0.0000000000027756194     0.0000000000032493155     0.0000000000034912243     0.0000000000035202710     0.0000000000034076550     0.0000000000032354772     0.0000000000030667915     0.0000000000029345605     0.0000000000028456425     0.0000000000027919685     0.0000000000027617733     0.0000000000027463643     0.0000000000027415814     0.0000000000027463643     0.0000000000027617733     0.0000000000027919685     0.0000000000028456425     0.0000000000029345605     0.0000000000030667915     0.0000000000032354772     0.0000000000034076550     0.0000000000035202710     0.0000000000034912243     0.0000000000032493155     0.0000000000027756194     0.0000000000021158899     0.0000000000013981504     0.0000000000008461634     0.0000000000006394303 
    0.0000000000000444012     0.0000000000003495749     0.0000000000011741169     0.0000000000022743258     0.0000000000033350133     0.0000000000040763417     0.0000000000043450344     0.0000000000042717205     0.0000000000040293251     0.0000000000037439409     0.0000000000034986555     0.0000000000033240115     0.0000000000032143455     0.0000000000031503206     0.0000000000031143796     0.0000000000030959369     0.0000000000030902178     0.0000000000030959369     0.0000000000031143796     0.0000000000031503206     0.0000000000032143455     0.0000000000033240115     0.0000000000034986555     0.0000000000037439409     0.0000000000040293251     0.0000000000042717205     0.0000000000043450344     0.0000000000040763417     0.0000000000033350133     0.0000000000022743258     0.0000000000011741169     0.0000000000003495749     0.0000000000000444012 
    -0.0000000000016437481     -0.0000000000012298451     -0.0000000000000976193     0.0000000000014542365     0.0000000000030268330     0.0000000000042504956     0.0000000000049000175     0.0000000000049368352     0.0000000000045908321     0.0000000000041937890     0.0000000000038597089     0.0000000000036276976     0.0000000000034869947     0.0000000000034092738     0.0000000000033693293     0.0000000000033510268     0.0000000000033458296     0.0000000000033510268     0.0000000000033693293     0.0000000000034092738     0.0000000000034869947     0.0000000000036276976     0.0000000000038597089     0.0000000000041937890     0.0000000000045908321     0.0000000000049368352     0.0000000000049000175     0.0000000000042504956     0.0000000000030268330     0.0000000000014542365     -0.0000000000000976193     -0.0000000000012298451     -0.0000000000016437481 
    -0.0000000000042854328     -0.0000000000037895888     -0.0000000000024113394     -0.0000000000004578181     0.0000000000016372286     0.0000000000034364646     0.0000000000046313951     0.0000000000051156754     0.0000000000049649601     0.0000000000045070196     0.0000000000040997930     0.0000000000038092525     0.0000000000036330519     0.0000000000035398457     0.0000000000034969878     0.0000000000034806973     0.0000000000034768552     0.0000000000034806973     0.0000000000034969878     0.0000000000035398457     0.0000000000036330519     0.0000000000038092525     0.0000000000040997930     0.0000000000045070196     0.0000000000049649601     0.0000000000051156754     0.0000000000046313951     0.0000000000034364646     0.0000000000016372286     -0.0000000000004578181     -0.0000000000024113394     -0.0000000000037895888     -0.0000000000042854328 
    -0.0000000000072347538     -0.0000000000067281951     -0.0000000000052869352     -0.0000000000031474552     -0.0000000000006870879     0.0000000000016472174     0.0000000000034621642     0.0000000000045354738     0.0000000000048567066     0.0000000000045788841     0.0000000000041506934     0.0000000000038254307     0.0000000000036237170     0.0000000000035193251     0.0000000000034753079     0.0000000000034614394     0.0000000000034589375     0.0000000000034614394     0.0000000000034753079     0.0000000000035193251     0.0000000000036237170     0.0000000000038254307     0.0000000000041506934     0.0000000000045788841     0.0000000000048567066     0.0000000000045354738     0.0000000000034621642     0.0000000000016472174     -0.0000000000006870879     -0.0000000000031474552     -0.0000000000052869352     -0.0000000000067281951     -0.0000000000072347538 
    -0.0000000000095675616     -0.0000000000091403454     -0.0000000000078790452     -0.0000000000058758067     -0.0000000000033567752     -0.0000000000007012504     0.0000000000016409058     0.0000000000033092366     0.0000000000041627294     0.0000000000042868135     0.0000000000039537421     0.0000000000036392442     0.0000000000034364970     0.0000000000033317962     0.0000000000032895293     0.0000000000032775230     0.0000000000032757265     0.0000000000032775230     0.0000000000032895293     0.0000000000033317962     0.0000000000034364970     0.0000000000036392442     0.0000000000039537421     0.0000000000042868135     0.0000000000041627294     0.0000000000033092366     0.0000000000016409058     -0.0000000000007012504     -0.0000000000033567752     -0.0000000000058758067     -0.0000000000078790452     -0.0000000000091403454     -0.0000000000095675616 
    -0.0000000000105168640     -0.0000000000102314105     -0.0000000000093320197     -0.0000000000077461145     -0.0000000000055067378     -0.0000000000028667943     -0.0000000000002766431     0.0000000000017968408     0.0000000000030826592     0.0000000000035839806     0.0000000000034910739     0.0000000000032350286     0.0000000000030600435     0.0000000000029681211     0.0000000000029309011     0.0000000000029200088     0.0000000000029181794     0.0000000000029200088     0.0000000000029309011     0.0000000000029681211     0.0000000000030600435     0.0000000000032350286     0.0000000000034910739     0.0000000000035839806     0.0000000000030826592     0.0000000000017968408     -0.0000000000002766431     -0.0000000000028667943     -0.0000000000055067378     -0.0000000000077461145     -0.0000000000093320197     -0.0000000000102314105     -0.0000000000105168640 
    -0.0000000000097723419     -0.0000000000096326877     -0.0000000000091295955     -0.0000000000080765891     -0.0000000000063535322     -0.0000000000040782163     -0.0000000000016379806     0.0000000000004786654     0.0000000000019304745     0.0000000000026513012     0.0000000000027859760     0.0000000000026255126     0.0000000000024978863     0.0000000000024282508     0.0000000000023987050     0.0000000000023887754     0.0000000000023865920     0.0000000000023887754     0.0000000000023987050     0.0000000000024282508     0.0000000000024978863     0.0000000000026255126     0.0000000000027859760     0.0000000000026513012     0.0000000000019304745     0.0000000000004786654     -0.0000000000016379806     -0.0000000000040782163     -0.0000000000063535322     -0.0000000000080765891     -0.0000000000091295955     -0.0000000000096326877     -0.0000000000097723419 
    -0.0000000000074734851     -0.0000000000074336452     -0.0000000000072272245     -0.0000000000066494866     -0.0000000000055270854     -0.0000000000038839312     -0.0000000000019964207     -0.0000000000002676624     0.0000000000009899549     0.0000000000016848238     0.0000000000019092496     0.0000000000018477792     0.0000000000017710409     0.0000000000017267266     0.0000000000017064216     0.0000000000016983283     0.0000000000016961310     0.0000000000016983283     0.0000000000017064216     0.0000000000017267266     0.0000000000017710409     0.0000000000018477792     0.0000000000019092496     0.0000000000016848238     0.0000000000009899549     -0.0000000000002676624     -0.0000000000019964207     -0.0000000000038839312     -0.0000000000055270854     -0.0000000000066494866     -0.0000000000072272245     -0.0000000000074336452     -0.0000000000074734851 
    -0.0000000000040349037     -0.0000000000040346404     -0.0000000000039801513     -0.0000000000037417978     -0.0000000000032000205     -0.0000000000023456221     -0.0000000000013202655     -0.0000000000003505688     0.0000000000003777785     0.0000000000008011458     0.0000000000009626677     0.0000000000009534274     0.0000000000009193814     0.0000000000008985233     0.0000000000008882191     0.0000000000008835410     0.0000000000008821165     0.0000000000008835410     0.0000000000008882191     0.0000000000008985233     0.0000000000009193814     0.0000000000009534274     0.0000000000009626677     0.0000000000008011458     0.0000000000003777785     -0.0000000000003505688     -0.0000000000013202655     -0.0000000000023456221     -0.0000000000032000205     -0.0000000000037417978     -0.0000000000039801513     -0.0000000000040346404     -0.0000000000040349037 
    0.0000000000000000000     0.0000000000000000000     0.0000000000000000000     0.0000000000000000000     0.0000000000000000000     0.0000000000000000000     0.0000000000000000000     0.0000000000000000000     -0.0000000000000000000     -0.0000000000000000000     -0.0000000000000000000     -0.0000000000000000000     -0.0000000000000000000     -0.0000000000000000000     0.0000000000000000000     -0.0000000000000000000     0.0000000000000000000     0.0000000000000000000     -0.0000000000000000000     -0.0000000000000000000     -0.0000000000000000000     -0.0000000000000000000     -0.0000000000000000000     -0.0000000000000000000     -0.0000000000000000000     0.0000000000000000000     0.0000000000000000000     0.0000000000000000000     0.0000000000000000000     0.0000000000000000000     0.0000000000000000000     0.0000000000000000000     0.0000000000000000000 
  END_DATAGRID_3D
END_BLOCK_DATAGRID_3D
