BEGIN_BLOCK_DATAGRID_3D
  ScalarField
  BEGIN_DATAGRID_3D_ScalarField
    33 33 33
    0.0 0.0 0.0
    2.8630399984309953254 0.0000000000000000000 0.0000000000000000000
    0.0000000000000000000 2.8630399984309953254 0.0000000000000000000
    0.0000000000000000000 0.0000000000000000000 2.8630399984309953254
    0.0020438604698237179     0.0019862239647795922     0.0018295745191558505     0.0016126143344071123     0.0013736683235966616     0.0011325283065814539     0.0008910004987354738     0.0006494491223754125     0.0004215295374779285     0.0002328244094053163     0.0001071073421243698     0.0000518343164144805     0.0000248126886717005     0.0000086909167019428     -0.0000006050890100824     -0.0000055570055506992     -0.0000071405271393407     -0.0000055570055506992     -0.0000006050890100825     0.0000086909167019428     0.0000248126886717005     0.0000518343164144805     0.0001071073421243699     0.0002328244094053164     0.0004215295374779285     0.0006494491223754125     0.0008910004987354738     0.0011325283065814539     0.0013736683235966616     0.0016126143344071121     0.0018295745191558505     0.0019862239647795922     0.0020438604698237179 
    0.0019862239647795922     0.0019301384407618086     0.0017775676632597152     0.0015658409603358148     0.0013319845637253681     0.0010954122504605213     0.0008585974199814031     0.0006228269392197980     0.0004019215594839498     0.0002205810886717806     0.0001012466726958490     0.0000496065164857469     0.0000235683543919620     0.0000079909119313542     -0.0000010313674218174     -0.0000058577342373311     -0.0000074046852422426     -0.0000058577342373311     -0.0000010313674218174     0.0000079909119313542     0.0000235683543919621     0.0000496065164857469     0.0001012466726958491     0.0002205810886717807     0.0004019215594839498     0.0006228269392197980     0.0008585974199814031     0.0010954122504605213     0.0013319845637253681     0.0015658409603358148     0.0017775676632597152     0.0019301384407618086     0.0019862239647795922 
    0.0018295745191558505     0.0017775676632597152     0.0016356820175682033     0.0014375885671350579     0.0012169800383463403     0.0009925162403359288     0.0007686698115151183     0.0005491922118513940     0.0003481078030345763     0.0001874339320898981     0.0000858162799667715     0.0000434519941454236     0.0000201150978841275     0.0000060346137330825     -0.0000022304688500078     -0.0000067060985491429     -0.0000081500363244684     -0.0000067060985491429     -0.0000022304688500077     0.0000060346137330825     0.0000201150978841275     0.0000434519941454236     0.0000858162799667715     0.0001874339320898981     0.0003481078030345763     0.0005491922118513940     0.0007686698115151183     0.0009925162403359286     0.0012169800383463403     0.0014375885671350579     0.0016356820175682028     0.0017775676632597152     0.0018295745191558505 
    0.0016126143344071123     0.0015658409603358148     0.0014375885671350579     0.0012567813825744706     0.0010531219261166690     0.0008449468038682012     0.0006398605998396554     0.0004447424666563804     0.0002731476624873664     0.0001426473614399452     0.0000662612978944878     0.0000347276608203702     0.0000151742908018667     0.0000031974637741287     -0.0000039891017171176     -0.0000079542238264579     -0.0000092455742421467     -0.0000079542238264578     -0.0000039891017171176     0.0000031974637741287     0.0000151742908018668     0.0000347276608203702     0.0000662612978944878     0.0001426473614399453     0.0002731476624873664     0.0004447424666563804     0.0006398605998396554     0.0008449468038682011     0.0010531219261166690     0.0012567813825744706     0.0014375885671350577     0.0015658409603358148     0.0016126143344071123 
    0.0013736683235966620     0.0013319845637253681     0.0012169800383463403     0.0010531219261166690     0.0008668380444870761     0.0006770361025347407     0.0004948536163730733     0.0003297109809726309     0.0001933434944143449     0.0000975141199124097     0.0000486954732439636     0.0000250760284421169     0.0000096295385729874     -0.0000000469404995269     -0.0000060246571408059     -0.0000093962793567532     -0.0000105052913057668     -0.0000093962793567533     -0.0000060246571408059     -0.0000000469404995269     0.0000096295385729874     0.0000250760284421169     0.0000486954732439636     0.0000975141199124098     0.0001933434944143450     0.0003297109809726310     0.0004948536163730733     0.0006770361025347406     0.0008668380444870761     0.0010531219261166688     0.0012169800383463403     0.0013319845637253681     0.0013736683235966620 
    0.0011325283065814539     0.0010954122504605213     0.0009925162403359286     0.0008449468038682010     0.0006770361025347405     0.0005086800511297995     0.0003536993373025808     0.0002223482559646221     0.0001230650767559844     0.0000613714182341149     0.0000335195631023865     0.0000158878879225594     0.0000042479537636171     -0.0000032636646773660     -0.0000080562111697336     -0.0000108141329704003     -0.0000117277295756731     -0.0000108141329704003     -0.0000080562111697336     -0.0000032636646773660     0.0000042479537636171     0.0000158878879225595     0.0000335195631023865     0.0000613714182341149     0.0001230650767559845     0.0002223482559646222     0.0003536993373025808     0.0005086800511297995     0.0006770361025347405     0.0008449468038682011     0.0009925162403359286     0.0010954122504605213     0.0011325283065814539 
    0.0008910004987354736     0.0008585974199814032     0.0007686698115151183     0.0006398605998396552     0.0004948536163730732     0.0003536993373025807     0.0002308544714326310     0.0001352941317414389     0.0000713174123362603     0.0000387176471737841     0.0000206511187600412     0.0000080147634602010     -0.0000004706009846311     -0.0000061352757818780     -0.0000098530266016056     -0.0000120164636989919     -0.0000127334683825429     -0.0000120164636989919     -0.0000098530266016056     -0.0000061352757818780     -0.0000004706009846310     0.0000080147634602010     0.0000206511187600412     0.0000387176471737841     0.0000713174123362603     0.0001352941317414390     0.0002308544714326311     0.0003536993373025807     0.0004948536163730732     0.0006398605998396554     0.0007686698115151185     0.0008585974199814033     0.0008910004987354736 
    0.0006494491223754126     0.0006228269392197980     0.0005491922118513940     0.0004447424666563803     0.0003297109809726310     0.0002223482559646221     0.0001352941317414389     0.0000746514036395878     0.0000408074613157684     0.0000232615837243982     0.0000105807480496902     0.0000017666914006527     -0.0000042966554447655     -0.0000084708763107155     -0.0000112509014671326     -0.0000128609113323683     -0.0000133893834459109     -0.0000128609113323682     -0.0000112509014671325     -0.0000084708763107155     -0.0000042966554447655     0.0000017666914006527     0.0000105807480496902     0.0000232615837243983     0.0000408074613157684     0.0000746514036395879     0.0001352941317414390     0.0002223482559646222     0.0003297109809726310     0.0004447424666563803     0.0005491922118513940     0.0006228269392197980     0.0006494491223754126 
    0.0004215295374779285     0.0004019215594839498     0.0003481078030345764     0.0002731476624873664     0.0001933434944143449     0.0001230650767559844     0.0000713174123362603     0.0000408074613157684     0.0000240185525408099     0.0000117778457890545     0.0000031321650873469     -0.0000029216866398890     -0.0000071899185886286     -0.0000101761225964656     -0.0000121481289338176     -0.0000132601271621993     -0.0000136168622387519     -0.0000132601271621993     -0.0000121481289338176     -0.0000101761225964656     -0.0000071899185886286     -0.0000029216866398890     0.0000031321650873469     0.0000117778457890545     0.0000240185525408099     0.0000408074613157684     0.0000713174123362603     0.0001230650767559845     0.0001933434944143449     0.0002731476624873664     0.0003481078030345764     0.0004019215594839498     0.0004215295374779285 
    0.0002328244094053163     0.0002205810886717807     0.0001874339320898981     0.0001426473614399452     0.0000975141199124097     0.0000613714182341148     0.0000387176471737841     0.0000232615837243983     0.0000117778457890545     0.0000035767600067179     -0.0000021990595106156     -0.0000062942236394061     -0.0000092098694903589     -0.0000112240107067381     -0.0000125004618433518     -0.0000131809199988016     -0.0000133902088845101     -0.0000131809199988016     -0.0000125004618433518     -0.0000112240107067382     -0.0000092098694903589     -0.0000062942236394061     -0.0000021990595106156     0.0000035767600067179     0.0000117778457890545     0.0000232615837243983     0.0000387176471737841     0.0000613714182341148     0.0000975141199124097     0.0001426473614399453     0.0001874339320898981     0.0002205810886717807     0.0002328244094053163 
    0.0001071073421243699     0.0001012466726958491     0.0000858162799667715     0.0000662612978944878     0.0000486954732439636     0.0000335195631023864     0.0000206511187600412     0.0000105807480496902     0.0000031321650873469     -0.0000021990595106156     -0.0000059700175024402     -0.0000086275910607425     -0.0000104611606084692     -0.0000116466516251802     -0.0000123253744979213     -0.0000126453153934488     -0.0000127346725043444     -0.0000126453153934488     -0.0000123253744979213     -0.0000116466516251802     -0.0000104611606084692     -0.0000086275910607425     -0.0000059700175024402     -0.0000021990595106156     0.0000031321650873469     0.0000105807480496902     0.0000206511187600412     0.0000335195631023865     0.0000486954732439636     0.0000662612978944878     0.0000858162799667715     0.0001012466726958491     0.0001071073421243699 
    0.0000518343164144805     0.0000496065164857469     0.0000434519941454236     0.0000347276608203701     0.0000250760284421169     0.0000158878879225594     0.0000080147634602010     0.0000017666914006527     -0.0000029216866398890     -0.0000062942236394061     -0.0000086275910607425     -0.0000101593209969040     -0.0000110769959769364     -0.0000115414225443892     -0.0000117102357309436     -0.0000117346284183993     -0.0000117285476324796     -0.0000117346284183993     -0.0000117102357309436     -0.0000115414225443892     -0.0000110769959769364     -0.0000101593209969040     -0.0000086275910607425     -0.0000062942236394061     -0.0000029216866398890     0.0000017666914006527     0.0000080147634602010     0.0000158878879225594     0.0000250760284421169     0.0000347276608203701     0.0000434519941454236     0.0000496065164857469     0.0000518343164144805 
    0.0000248126886717005     0.0000235683543919621     0.0000201150978841275     0.0000151742908018668     0.0000096295385729874     0.0000042479537636171     -0.0000004706009846310     -0.0000042966554447655     -0.0000071899185886286     -0.0000092098694903589     -0.0000104611606084692     -0.0000110769959769364     -0.0000112189407637734     -0.0000110695591184639     -0.0000108097174775443     -0.0000105893138043300     -0.0000105048744946547     -0.0000105893138043300     -0.0000108097174775443     -0.0000110695591184639     -0.0000112189407637734     -0.0000110769959769364     -0.0000104611606084692     -0.0000092098694903589     -0.0000071899185886286     -0.0000042966554447655     -0.0000004706009846311     0.0000042479537636171     0.0000096295385729874     0.0000151742908018668     0.0000201150978841275     0.0000235683543919621     0.0000248126886717005 
    0.0000086909167019428     0.0000079909119313543     0.0000060346137330825     0.0000031974637741287     -0.0000000469404995269     -0.0000032636646773660     -0.0000061352757818780     -0.0000084708763107156     -0.0000101761225964657     -0.0000112240107067381     -0.0000116466516251802     -0.0000115414225443892     -0.0000110695591184639     -0.0000104311248663970     -0.0000098220653265905     -0.0000093954602844092     -0.0000092432816409620     -0.0000093954602844092     -0.0000098220653265905     -0.0000104311248663970     -0.0000110695591184639     -0.0000115414225443892     -0.0000116466516251802     -0.0000112240107067382     -0.0000101761225964657     -0.0000084708763107156     -0.0000061352757818780     -0.0000032636646773661     -0.0000000469404995269     0.0000031974637741287     0.0000060346137330825     0.0000079909119313542     0.0000086909167019428 
    -0.0000006050890100824     -0.0000010313674218174     -0.0000022304688500078     -0.0000039891017171176     -0.0000060246571408059     -0.0000080562111697336     -0.0000098530266016056     -0.0000112509014671326     -0.0000121481289338176     -0.0000125004618433517     -0.0000123253744979213     -0.0000117102357309436     -0.0000108097174775443     -0.0000098220653265905     -0.0000089488511343057     -0.0000083552773763751     -0.0000081457058240255     -0.0000083552773763751     -0.0000089488511343057     -0.0000098220653265904     -0.0000108097174775443     -0.0000117102357309436     -0.0000123253744979213     -0.0000125004618433518     -0.0000121481289338176     -0.0000112509014671326     -0.0000098530266016057     -0.0000080562111697336     -0.0000060246571408059     -0.0000039891017171176     -0.0000022304688500078     -0.0000010313674218174     -0.0000006050890100824 
    -0.0000055570055506992     -0.0000058577342373310     -0.0000067060985491429     -0.0000079542238264578     -0.0000093962793567532     -0.0000108141329704003     -0.0000120164636989919     -0.0000128609113323682     -0.0000132601271621993     -0.0000131809199988015     -0.0000126453153934487     -0.0000117346284183993     -0.0000105893138043300     -0.0000093954602844092     -0.0000083552773763751     -0.0000076487534938812     -0.0000073987728909155     -0.0000076487534938812     -0.0000083552773763751     -0.0000093954602844092     -0.0000105893138043300     -0.0000117346284183993     -0.0000126453153934487     -0.0000131809199988015     -0.0000132601271621993     -0.0000128609113323682     -0.0000120164636989919     -0.0000108141329704003     -0.0000093962793567532     -0.0000079542238264578     -0.0000067060985491429     -0.0000058577342373310     -0.0000055570055506992 
    -0.0000071405271393406     -0.0000074046852422425     -0.0000081500363244684     -0.0000092455742421467     -0.0000105052913057668     -0.0000117277295756731     -0.0000127334683825429     -0.0000133893834459109     -0.0000136168622387520     -0.0000133902088845101     -0.0000127346725043444     -0.0000117285476324796     -0.0000105048744946548     -0.0000092432816409620     -0.0000081457058240255     -0.0000073987728909155     -0.0000071340178212307     -0.0000073987728909155     -0.0000081457058240255     -0.0000092432816409619     -0.0000105048744946548     -0.0000117285476324796     -0.0000127346725043444     -0.0000133902088845101     -0.0000136168622387520     -0.0000133893834459109     -0.0000127334683825429     -0.0000117277295756731     -0.0000105052913057668     -0.0000092455742421467     -0.0000081500363244684     -0.0000074046852422425     -0.0000071405271393406 
    -0.0000055570055506992     -0.0000058577342373311     -0.0000067060985491430     -0.0000079542238264578     -0.0000093962793567533     -0.0000108141329704003     -0.0000120164636989919     -0.0000128609113323683     -0.0000132601271621993     -0.0000131809199988016     -0.0000126453153934487     -0.0000117346284183993     -0.0000105893138043300     -0.0000093954602844092     -0.0000083552773763751     -0.0000076487534938812     -0.0000073987728909155     -0.0000076487534938811     -0.0000083552773763751     -0.0000093954602844092     -0.0000105893138043300     -0.0000117346284183992     -0.0000126453153934487     -0.0000131809199988015     -0.0000132601271621993     -0.0000128609113323682     -0.0000120164636989919     -0.0000108141329704003     -0.0000093962793567533     -0.0000079542238264578     -0.0000067060985491430     -0.0000058577342373311     -0.0000055570055506992 
    -0.0000006050890100824     -0.0000010313674218174     -0.0000022304688500078     -0.0000039891017171176     -0.0000060246571408059     -0.0000080562111697336     -0.0000098530266016056     -0.0000112509014671326     -0.0000121481289338176     -0.0000125004618433518     -0.0000123253744979213     -0.0000117102357309436     -0.0000108097174775443     -0.0000098220653265905     -0.0000089488511343057     -0.0000083552773763751     -0.0000081457058240255     -0.0000083552773763751     -0.0000089488511343057     -0.0000098220653265904     -0.0000108097174775443     -0.0000117102357309435     -0.0000123253744979212     -0.0000125004618433517     -0.0000121481289338176     -0.0000112509014671326     -0.0000098530266016056     -0.0000080562111697336     -0.0000060246571408059     -0.0000039891017171176     -0.0000022304688500078     -0.0000010313674218174     -0.0000006050890100824 
    0.0000086909167019428     0.0000079909119313542     0.0000060346137330825     0.0000031974637741287     -0.0000000469404995269     -0.0000032636646773661     -0.0000061352757818781     -0.0000084708763107156     -0.0000101761225964657     -0.0000112240107067382     -0.0000116466516251802     -0.0000115414225443892     -0.0000110695591184639     -0.0000104311248663970     -0.0000098220653265905     -0.0000093954602844093     -0.0000092432816409620     -0.0000093954602844093     -0.0000098220653265905     -0.0000104311248663970     -0.0000110695591184639     -0.0000115414225443892     -0.0000116466516251802     -0.0000112240107067381     -0.0000101761225964657     -0.0000084708763107156     -0.0000061352757818780     -0.0000032636646773660     -0.0000000469404995269     0.0000031974637741287     0.0000060346137330825     0.0000079909119313542     0.0000086909167019428 
    0.0000248126886717005     0.0000235683543919621     0.0000201150978841275     0.0000151742908018668     0.0000096295385729874     0.0000042479537636171     -0.0000004706009846311     -0.0000042966554447655     -0.0000071899185886287     -0.0000092098694903589     -0.0000104611606084692     -0.0000110769959769365     -0.0000112189407637734     -0.0000110695591184639     -0.0000108097174775443     -0.0000105893138043301     -0.0000105048744946548     -0.0000105893138043300     -0.0000108097174775443     -0.0000110695591184639     -0.0000112189407637734     -0.0000110769959769364     -0.0000104611606084692     -0.0000092098694903589     -0.0000071899185886286     -0.0000042966554447655     -0.0000004706009846311     0.0000042479537636171     0.0000096295385729874     0.0000151742908018668     0.0000201150978841275     0.0000235683543919621     0.0000248126886717005 
    0.0000518343164144805     0.0000496065164857469     0.0000434519941454236     0.0000347276608203701     0.0000250760284421169     0.0000158878879225594     0.0000080147634602010     0.0000017666914006526     -0.0000029216866398890     -0.0000062942236394061     -0.0000086275910607425     -0.0000101593209969040     -0.0000110769959769364     -0.0000115414225443892     -0.0000117102357309436     -0.0000117346284183993     -0.0000117285476324796     -0.0000117346284183993     -0.0000117102357309436     -0.0000115414225443892     -0.0000110769959769364     -0.0000101593209969040     -0.0000086275910607425     -0.0000062942236394061     -0.0000029216866398889     0.0000017666914006527     0.0000080147634602010     0.0000158878879225595     0.0000250760284421169     0.0000347276608203702     0.0000434519941454236     0.0000496065164857469     0.0000518343164144805 
    0.0001071073421243699     0.0001012466726958491     0.0000858162799667715     0.0000662612978944877     0.0000486954732439636     0.0000335195631023864     0.0000206511187600412     0.0000105807480496902     0.0000031321650873469     -0.0000021990595106156     -0.0000059700175024402     -0.0000086275910607425     -0.0000104611606084692     -0.0000116466516251802     -0.0000123253744979213     -0.0000126453153934488     -0.0000127346725043444     -0.0000126453153934488     -0.0000123253744979213     -0.0000116466516251802     -0.0000104611606084692     -0.0000086275910607425     -0.0000059700175024402     -0.0000021990595106156     0.0000031321650873469     0.0000105807480496902     0.0000206511187600412     0.0000335195631023865     0.0000486954732439636     0.0000662612978944877     0.0000858162799667715     0.0001012466726958491     0.0001071073421243699 
    0.0002328244094053163     0.0002205810886717807     0.0001874339320898981     0.0001426473614399452     0.0000975141199124097     0.0000613714182341148     0.0000387176471737841     0.0000232615837243983     0.0000117778457890545     0.0000035767600067179     -0.0000021990595106156     -0.0000062942236394061     -0.0000092098694903589     -0.0000112240107067381     -0.0000125004618433518     -0.0000131809199988016     -0.0000133902088845101     -0.0000131809199988016     -0.0000125004618433517     -0.0000112240107067381     -0.0000092098694903589     -0.0000062942236394061     -0.0000021990595106156     0.0000035767600067179     0.0000117778457890545     0.0000232615837243983     0.0000387176471737841     0.0000613714182341148     0.0000975141199124097     0.0001426473614399452     0.0001874339320898981     0.0002205810886717806     0.0002328244094053163 
    0.0004215295374779285     0.0004019215594839498     0.0003481078030345763     0.0002731476624873664     0.0001933434944143449     0.0001230650767559844     0.0000713174123362603     0.0000408074613157684     0.0000240185525408099     0.0000117778457890545     0.0000031321650873469     -0.0000029216866398889     -0.0000071899185886286     -0.0000101761225964656     -0.0000121481289338176     -0.0000132601271621993     -0.0000136168622387519     -0.0000132601271621993     -0.0000121481289338176     -0.0000101761225964656     -0.0000071899185886286     -0.0000029216866398890     0.0000031321650873469     0.0000117778457890545     0.0000240185525408099     0.0000408074613157684     0.0000713174123362604     0.0001230650767559845     0.0001933434944143450     0.0002731476624873664     0.0003481078030345764     0.0004019215594839498     0.0004215295374779285 
    0.0006494491223754126     0.0006228269392197980     0.0005491922118513940     0.0004447424666563802     0.0003297109809726309     0.0002223482559646221     0.0001352941317414389     0.0000746514036395878     0.0000408074613157684     0.0000232615837243982     0.0000105807480496902     0.0000017666914006527     -0.0000042966554447655     -0.0000084708763107155     -0.0000112509014671326     -0.0000128609113323683     -0.0000133893834459109     -0.0000128609113323683     -0.0000112509014671326     -0.0000084708763107156     -0.0000042966554447655     0.0000017666914006527     0.0000105807480496902     0.0000232615837243982     0.0000408074613157684     0.0000746514036395879     0.0001352941317414390     0.0002223482559646222     0.0003297109809726310     0.0004447424666563803     0.0005491922118513940     0.0006228269392197980     0.0006494491223754126 
    0.0008910004987354736     0.0008585974199814033     0.0007686698115151185     0.0006398605998396552     0.0004948536163730732     0.0003536993373025807     0.0002308544714326311     0.0001352941317414390     0.0000713174123362603     0.0000387176471737841     0.0000206511187600412     0.0000080147634602010     -0.0000004706009846311     -0.0000061352757818780     -0.0000098530266016056     -0.0000120164636989919     -0.0000127334683825429     -0.0000120164636989919     -0.0000098530266016056     -0.0000061352757818780     -0.0000004706009846310     0.0000080147634602010     0.0000206511187600412     0.0000387176471737841     0.0000713174123362603     0.0001352941317414390     0.0002308544714326311     0.0003536993373025808     0.0004948536163730733     0.0006398605998396554     0.0007686698115151185     0.0008585974199814033     0.0008910004987354736 
    0.0011325283065814539     0.0010954122504605213     0.0009925162403359286     0.0008449468038682010     0.0006770361025347405     0.0005086800511297994     0.0003536993373025807     0.0002223482559646221     0.0001230650767559844     0.0000613714182341149     0.0000335195631023865     0.0000158878879225594     0.0000042479537636171     -0.0000032636646773660     -0.0000080562111697335     -0.0000108141329704003     -0.0000117277295756731     -0.0000108141329704003     -0.0000080562111697336     -0.0000032636646773660     0.0000042479537636171     0.0000158878879225595     0.0000335195631023865     0.0000613714182341149     0.0001230650767559844     0.0002223482559646222     0.0003536993373025808     0.0005086800511297995     0.0006770361025347405     0.0008449468038682010     0.0009925162403359286     0.0010954122504605213     0.0011325283065814539 
    0.0013736683235966620     0.0013319845637253681     0.0012169800383463403     0.0010531219261166688     0.0008668380444870761     0.0006770361025347406     0.0004948536163730733     0.0003297109809726310     0.0001933434944143449     0.0000975141199124097     0.0000486954732439636     0.0000250760284421169     0.0000096295385729874     -0.0000000469404995269     -0.0000060246571408058     -0.0000093962793567532     -0.0000105052913057668     -0.0000093962793567533     -0.0000060246571408059     -0.0000000469404995269     0.0000096295385729874     0.0000250760284421169     0.0000486954732439636     0.0000975141199124097     0.0001933434944143449     0.0003297109809726310     0.0004948536163730733     0.0006770361025347407     0.0008668380444870761     0.0010531219261166690     0.0012169800383463403     0.0013319845637253681     0.0013736683235966620 
    0.0016126143344071123     0.0015658409603358148     0.0014375885671350579     0.0012567813825744706     0.0010531219261166690     0.0008449468038682012     0.0006398605998396554     0.0004447424666563804     0.0002731476624873664     0.0001426473614399452     0.0000662612978944878     0.0000347276608203702     0.0000151742908018668     0.0000031974637741287     -0.0000039891017171176     -0.0000079542238264578     -0.0000092455742421467     -0.0000079542238264578     -0.0000039891017171176     0.0000031974637741287     0.0000151742908018668     0.0000347276608203702     0.0000662612978944878     0.0001426473614399453     0.0002731476624873664     0.0004447424666563804     0.0006398605998396554     0.0008449468038682011     0.0010531219261166690     0.0012567813825744706     0.0014375885671350579     0.0015658409603358148     0.0016126143344071123 
    0.0018295745191558505     0.0017775676632597152     0.0016356820175682033     0.0014375885671350579     0.0012169800383463403     0.0009925162403359288     0.0007686698115151183     0.0005491922118513940     0.0003481078030345763     0.0001874339320898981     0.0000858162799667715     0.0000434519941454236     0.0000201150978841275     0.0000060346137330825     -0.0000022304688500078     -0.0000067060985491430     -0.0000081500363244685     -0.0000067060985491430     -0.0000022304688500078     0.0000060346137330825     0.0000201150978841275     0.0000434519941454236     0.0000858162799667715     0.0001874339320898981     0.0003481078030345763     0.0005491922118513940     0.0007686698115151183     0.0009925162403359286     0.0012169800383463403     0.0014375885671350577     0.0016356820175682028     0.0017775676632597152     0.0018295745191558505 
    0.0019862239647795922     0.0019301384407618086     0.0017775676632597152     0.0015658409603358148     0.0013319845637253681     0.0010954122504605213     0.0008585974199814031     0.0006228269392197980     0.0004019215594839498     0.0002205810886717806     0.0001012466726958491     0.0000496065164857469     0.0000235683543919620     0.0000079909119313542     -0.0000010313674218175     -0.0000058577342373311     -0.0000074046852422426     -0.0000058577342373311     -0.0000010313674218174     0.0000079909119313542     0.0000235683543919620     0.0000496065164857469     0.0001012466726958491     0.0002205810886717807     0.0004019215594839498     0.0006228269392197980     0.0008585974199814031     0.0010954122504605213     0.0013319845637253681     0.0015658409603358148     0.0017775676632597152     0.0019301384407618086     0.0019862239647795922 
    0.0020438604698237179     0.0019862239647795922     0.0018295745191558505     0.0016126143344071123     0.0013736683235966616     0.0011325283065814539     0.0008910004987354738     0.0006494491223754125     0.0004215295374779285     0.0002328244094053163     0.0001071073421243698     0.0000518343164144805     0.0000248126886717005     0.0000086909167019428     -0.0000006050890100824     -0.0000055570055506992     -0.0000071405271393407     -0.0000055570055506992     -0.0000006050890100825     0.0000086909167019428     0.0000248126886717005     0.0000518343164144805     0.0001071073421243699     0.0002328244094053164     0.0004215295374779285     0.0006494491223754125     0.0008910004987354738     0.0011325283065814539     0.0013736683235966616     0.0016126143344071121     0.0018295745191558505     0.0019862239647795922     0.0020438604698237179 
    0.0019861496128634809     0.0019300498792404687     0.0017774427010377736     0.0015656733581721741     0.0013317866754549996     0.0010952094226412325     0.0008584171582145013     0.0006226885202995290     0.0004018308391089590     0.0002205314736010673     0.0001012238357057707     0.0000495945231771850     0.0000235609757051898     0.0000079859457521894     -0.0000010350839851406     -0.0000058608412248592     -0.0000074076073060638     -0.0000058608412248592     -0.0000010350839851405     0.0000079859457521895     0.0000235609757051898     0.0000495945231771850     0.0001012238357057708     0.0002205314736010673     0.0004018308391089590     0.0006226885202995290     0.0008584171582145012     0.0010952094226412325     0.0013317866754549996     0.0015656733581721741     0.0017774427010377736     0.0019300498792404687     0.0019861496128634809 
    0.0019300498792404687     0.0018754462011171572     0.0017267744360472753     0.0015200641090394056     0.0012911278990042055     0.0010590493401037842     0.0008269469161927564     0.0005969564795638162     0.0003829977222629737     0.0002088742932833568     0.0000957307877138783     0.0000474621790049880     0.0000223714447836907     0.0000073178018431740     -0.0000014406496913551     -0.0000061455582970247     -0.0000076570141513674     -0.0000061455585687333     -0.0000014406502267444     0.0000073178010446931     0.0000223714436981053     0.0000474621775827461     0.0000957307859060515     0.0002088742910906828     0.0003829977197852709     0.0005969564770163060     0.0008269469138650365     0.0010590493382673725     0.0012911278978086683     0.0015200641084523537     0.0017267744358773918     0.0018754462011171577     0.0019300498792404687 
    0.0017774427010377734     0.0017267744358773918     0.0015884193298595912     0.0013949076689632911     0.0011788954691030048     0.0009587916944785158     0.0007396292869326308     0.0005258208877498277     0.0003313503063799412     0.0001773500854253757     0.0000813007881698554     0.0000415673710968203     0.0000190666898526029     0.0000054477275912414     -0.0000025835426693397     -0.0000069502539798753     -0.0000083620335961719     -0.0000069502544875705     -0.0000025835436684125     0.0000054477261060752     0.0000190666878452443     0.0000415673684883861     0.0000813007848856006     0.0001773500814825990     0.0003313503019771973     0.0005258208832959522     0.0007396292829668820     0.0009587916914900641     0.0011788954673301842     0.0013949076682861102     0.0015884193298595912     0.0017267744360472757     0.0017774427010377734 
    0.0015656733581721741     0.0015200641084523532     0.0013949076682861102     0.0012182089307963960     0.0010188571190773350     0.0008150009440634680     0.0006146394339097392     0.0004250345360882564     0.0002595286402290833     0.0001348639150328783     0.0000631098335235799     0.0000332011590777713     0.0000143296428889357     0.0000027291734337546     -0.0000042639910357831     -0.0000081367808861412     -0.0000094003260992511     -0.0000081367815750130     -0.0000042639923871233     0.0000027291714391232     0.0000143296402256865     0.0000332011556748531     0.0000631098293226555     0.0001348639100968196     0.0002595286348518507     0.0004250345308274146     0.0006146394294724835     0.0008150009410529036     0.0010188571177160892     0.0012182089307963960     0.0013949076689632911     0.0015200641090394060     0.0015656733581721741 
    0.0013317866754549996     0.0012911278978086683     0.0011788954673301840     0.0010188571177160892     0.0008368144091735521     0.0006514749192362307     0.0004741279889447162     0.0003142700510250280     0.0001832875238495678     0.0000922411431479495     0.0000467217684930294     0.0000239325961355711     0.0000090033503372392     -0.0000003856728796918     -0.0000062112454349519     -0.0000095070610697292     -0.0000105925288427546     -0.0000095070618844385     -0.0000062112470238984     -0.0000003856751963363     0.0000090033473072124     0.0000239325923729518     0.0000467217640040287     0.0000922411380717815     0.0001832875185647997     0.0003142700461722600     0.0004741279852865528     0.0006514749173590727     0.0008368144091735520     0.0010188571190773350     0.0011788954691030048     0.0012911278990042055     0.0013317866754549996 
    0.0010952094226412325     0.0010590493382673721     0.0009587916914900644     0.0008150009410529038     0.0006514749173590727     0.0004878095680328006     0.0003377077163695863     0.0002112439926765576     0.0001164611452183905     0.0000583729648131601     0.0000321292840893887     0.0000150988502798609     0.0000038288798645393     -0.0000034725494688901     -0.0000081477479452209     -0.0000108434063072813     -0.0000117368963023625     -0.0000108434071981306     -0.0000081477496679517     -0.0000034725519366864     0.0000038288767306749     0.0000150988465474144     0.0000321292798627422     0.0000583729603217125     0.0001164611408991241     0.0002112439891764508     0.0003377077143920936     0.0004878095680328006     0.0006514749192362308     0.0008150009440634681     0.0009587916944785159     0.0010590493401037837     0.0010952094226412325 
    0.0008584171582145010     0.0008269469138650365     0.0007396292829668820     0.0006146394294724833     0.0004741279852865527     0.0003377077143920936     0.0002194989080859957     0.0001281537004756165     0.0000676277066119473     0.0000372059206299564     0.0000197483663570943     0.0000075275443881561     -0.0000007013627742121     -0.0000062128746571655     -0.0000098378329612887     -0.0000119482649943502     -0.0000126475066716557     -0.0000119482659104355     -0.0000098378347147455     -0.0000062128771158308     -0.0000007013657840640     0.0000075275409930894     0.0000197483627831936     0.0000372059171812733     0.0000676277037398491     0.0001281536987601811     0.0002194989080859958     0.0003377077163695864     0.0004741279889447162     0.0006146394339097392     0.0007396292869326308     0.0008269469161927564     0.0008584171582145010 
    0.0006226885202995289     0.0005969564770163060     0.0005258208832959520     0.0004250345308274145     0.0003142700461722600     0.0002112439891764508     0.0001281536987601810     0.0000707604440449214     0.0000392237941002997     0.0000223144184232116     0.0000100594854911053     0.0000015288340764895     -0.0000043529197258396     -0.0000084087725697374     -0.0000111097693640298     -0.0000126717516807749     -0.0000131837593691839     -0.0000126717525617844     -0.0000111097710323202     -0.0000084087748555744     -0.0000043529224101699     0.0000015288312430379     0.0000100594827911050     0.0000223144161952524     0.0000392237927577009     0.0000707604440449215     0.0001281537004756165     0.0002112439926765576     0.0003142700510250280     0.0004250345360882564     0.0005258208877498276     0.0005969564795638162     0.0006226885202995289 
    0.0004018308391089590     0.0003829977197852709     0.0003313503019771973     0.0002595286348518506     0.0001832875185647997     0.0001164611408991240     0.0000676277037398491     0.0000392237927577008     0.0000230650263119357     0.0000112502200636713     0.0000029010194116845     -0.0000029503330301184     -0.0000070770544533884     -0.0000099603013720426     -0.0000118578981336294     -0.0000129232666605949     -0.0000132639487446545     -0.0000129232674393495     -0.0000118578995926620     -0.0000099603033233646     -0.0000070770566398847     -0.0000029503351533894     0.0000029010176683966     0.0000112502190264578     0.0000230650263119357     0.0000392237941002997     0.0000676277066119473     0.0001164611452183906     0.0001832875238495678     0.0002595286402290834     0.0003313503063799412     0.0003829977222629735     0.0004018308391089590 
    0.0002205314736010673     0.0002088742910906829     0.0001773500814825991     0.0001348639100968196     0.0000922411380717815     0.0000583729603217125     0.0000372059171812733     0.0000223144161952524     0.0000112502190264578     0.0000033510300022550     -0.0000022071930580063     -0.0000061396946303162     -0.0000089277661885874     -0.0000108403013048355     -0.0000120403154228329     -0.0000126726930718716     -0.0000128655312755227     -0.0000126726936900441     -0.0000120403165680587     -0.0000108403027943762     -0.0000089277677604245     -0.0000061396959766983     -0.0000022071938695462     0.0000033510300022550     0.0000112502200636714     0.0000223144184232117     0.0000372059206299565     0.0000583729648131602     0.0000922411431479496     0.0001348639150328783     0.0001773500854253758     0.0002088742932833568     0.0002205314736010673 
    0.0001012238357057708     0.0000957307859060515     0.0000813007848856005     0.0000631098293226555     0.0000467217640040286     0.0000321292798627422     0.0000197483627831936     0.0000100594827911050     0.0000029010176683965     -0.0000022071938695462     -0.0000057992266976670     -0.0000083059170231600     -0.0000100094036962669     -0.0000110860224419470     -0.0000116817186405159     -0.0000119495781182689     -0.0000120211959581509     -0.0000119495785466252     -0.0000116817194227105     -0.0000110860234191930     -0.0000100094046288746     -0.0000083059176258373     -0.0000057992266976670     -0.0000022071930580064     0.0000029010194116844     0.0000100594854911053     0.0000197483663570943     0.0000321292840893888     0.0000467217684930295     0.0000631098335235799     0.0000813007881698554     0.0000957307877138783     0.0001012238357057708 
    0.0000495945231771850     0.0000474621775827461     0.0000415673684883860     0.0000332011556748531     0.0000239325923729518     0.0000150988465474144     0.0000075275409930894     0.0000015288312430379     -0.0000029503351533894     -0.0000061396959766982     -0.0000083059176258373     -0.0000096826080520408     -0.0000104592644768515     -0.0000108028033594318     -0.0000108784790814708     -0.0000108441122616619     -0.0000108179511080830     -0.0000108441125113201     -0.0000108784795262635     -0.0000108028038730095     -0.0000104592648563440     -0.0000096826080520409     -0.0000083059170231600     -0.0000061396946303162     -0.0000029503330301185     0.0000015288340764895     0.0000075275443881561     0.0000150988502798609     0.0000239325961355711     0.0000332011590777713     0.0000415673710968203     0.0000474621790049880     0.0000495945231771850 
    0.0000235609757051898     0.0000223714436981053     0.0000190666878452443     0.0000143296402256865     0.0000090033473072124     0.0000038288767306749     -0.0000007013657840641     -0.0000043529224101699     -0.0000070770566398847     -0.0000089277677604244     -0.0000100094046288746     -0.0000104592648563440     -0.0000104459419609964     -0.0000101608969326384     -0.0000097946614083447     -0.0000095060675951250     -0.0000093981027141460     -0.0000095060677109386     -0.0000097946616032233     -0.0000101608971116224     -0.0000104459419609964     -0.0000104592644768515     -0.0000100094036962669     -0.0000089277661885875     -0.0000070770544533884     -0.0000043529197258396     -0.0000007013627742121     0.0000038288798645394     0.0000090033503372392     0.0000143296428889357     0.0000190666898526029     0.0000223714447836907     0.0000235609757051898 
    0.0000079859457521895     0.0000073178010446931     0.0000054477261060752     0.0000027291714391232     -0.0000003856751963363     -0.0000034725519366864     -0.0000062128771158308     -0.0000084087748555745     -0.0000099603033233646     -0.0000108403027943762     -0.0000110860234191930     -0.0000108028038730095     -0.0000101608971116223     -0.0000093705617376810     -0.0000086395668865900     -0.0000081332602784510     -0.0000079532776455504     -0.0000081332603172706     -0.0000086395669404134     -0.0000093705617376810     -0.0000101608969326385     -0.0000108028033594318     -0.0000110860224419470     -0.0000108403013048356     -0.0000099603013720426     -0.0000084087725697375     -0.0000062128746571656     -0.0000034725494688901     -0.0000003856728796918     0.0000027291734337547     0.0000054477275912414     0.0000073178018431740     0.0000079859457521895 
    -0.0000010350839851406     -0.0000014406502267444     -0.0000025835436684126     -0.0000042639923871233     -0.0000062112470238984     -0.0000081477496679517     -0.0000098378347147455     -0.0000111097710323202     -0.0000118578995926619     -0.0000120403165680586     -0.0000116817194227104     -0.0000108784795262635     -0.0000097946616032233     -0.0000086395669404133     -0.0000076289552722746     -0.0000069440032300755     -0.0000067022524403236     -0.0000069440032375026     -0.0000076289552722746     -0.0000086395668865900     -0.0000097946614083447     -0.0000108784790814708     -0.0000116817186405159     -0.0000120403154228330     -0.0000118578981336294     -0.0000111097693640299     -0.0000098378329612888     -0.0000081477479452209     -0.0000062112454349519     -0.0000042639910357831     -0.0000025835426693397     -0.0000014406496913551     -0.0000010350839851406 
    -0.0000058608412248592     -0.0000061455585687333     -0.0000069502544875705     -0.0000081367815750130     -0.0000095070618844385     -0.0000108434071981306     -0.0000119482659104355     -0.0000126717525617844     -0.0000129232674393495     -0.0000126726936900441     -0.0000119495785466252     -0.0000108441125113201     -0.0000095060677109386     -0.0000081332603172706     -0.0000069440032375026     -0.0000061371912051823     -0.0000058516755261284     -0.0000061371912051823     -0.0000069440032300755     -0.0000081332602784510     -0.0000095060675951250     -0.0000108441122616619     -0.0000119495781182690     -0.0000126726930718716     -0.0000129232666605950     -0.0000126717516807749     -0.0000119482649943502     -0.0000108434063072813     -0.0000095070610697292     -0.0000081367808861411     -0.0000069502539798754     -0.0000061455582970247     -0.0000058608412248592 
    -0.0000074076073060638     -0.0000076570141513674     -0.0000083620335961719     -0.0000094003260992511     -0.0000105925288427546     -0.0000117368963023625     -0.0000126475066716557     -0.0000131837593691839     -0.0000132639487446545     -0.0000128655312755227     -0.0000120211959581509     -0.0000108179511080830     -0.0000093981027141460     -0.0000079532776455504     -0.0000067022524403236     -0.0000058516755261284     -0.0000055501177131205     -0.0000058516755261284     -0.0000067022524403236     -0.0000079532776455504     -0.0000093981027141460     -0.0000108179511080830     -0.0000120211959581509     -0.0000128655312755228     -0.0000132639487446545     -0.0000131837593691840     -0.0000126475066716557     -0.0000117368963023625     -0.0000105925288427546     -0.0000094003260992511     -0.0000083620335961719     -0.0000076570141513674     -0.0000074076073060638 
    -0.0000058608412248592     -0.0000061455582970247     -0.0000069502539798753     -0.0000081367808861411     -0.0000095070610697292     -0.0000108434063072813     -0.0000119482649943502     -0.0000126717516807749     -0.0000129232666605950     -0.0000126726930718716     -0.0000119495781182689     -0.0000108441122616619     -0.0000095060675951250     -0.0000081332602784510     -0.0000069440032300755     -0.0000061371912051823     -0.0000058516755261284     -0.0000061371912051823     -0.0000069440032375026     -0.0000081332603172706     -0.0000095060677109386     -0.0000108441125113201     -0.0000119495785466252     -0.0000126726936900441     -0.0000129232674393495     -0.0000126717525617844     -0.0000119482659104355     -0.0000108434071981306     -0.0000095070618844385     -0.0000081367815750130     -0.0000069502544875705     -0.0000061455585687333     -0.0000058608412248592 
    -0.0000010350839851406     -0.0000014406496913551     -0.0000025835426693397     -0.0000042639910357831     -0.0000062112454349519     -0.0000081477479452209     -0.0000098378329612887     -0.0000111097693640298     -0.0000118578981336294     -0.0000120403154228330     -0.0000116817186405159     -0.0000108784790814708     -0.0000097946614083447     -0.0000086395668865900     -0.0000076289552722746     -0.0000069440032375026     -0.0000067022524403236     -0.0000069440032300755     -0.0000076289552722747     -0.0000086395669404134     -0.0000097946616032233     -0.0000108784795262635     -0.0000116817194227105     -0.0000120403165680586     -0.0000118578995926620     -0.0000111097710323202     -0.0000098378347147455     -0.0000081477496679517     -0.0000062112470238984     -0.0000042639923871233     -0.0000025835436684126     -0.0000014406502267444     -0.0000010350839851406 
    0.0000079859457521895     0.0000073178018431740     0.0000054477275912414     0.0000027291734337547     -0.0000003856728796918     -0.0000034725494688901     -0.0000062128746571656     -0.0000084087725697375     -0.0000099603013720426     -0.0000108403013048356     -0.0000110860224419470     -0.0000108028033594318     -0.0000101608969326385     -0.0000093705617376810     -0.0000086395669404134     -0.0000081332603172706     -0.0000079532776455504     -0.0000081332602784510     -0.0000086395668865900     -0.0000093705617376810     -0.0000101608971116223     -0.0000108028038730095     -0.0000110860234191930     -0.0000108403027943762     -0.0000099603033233646     -0.0000084087748555745     -0.0000062128771158308     -0.0000034725519366864     -0.0000003856751963363     0.0000027291714391232     0.0000054477261060751     0.0000073178010446931     0.0000079859457521895 
    0.0000235609757051898     0.0000223714447836907     0.0000190666898526029     0.0000143296428889357     0.0000090033503372393     0.0000038288798645394     -0.0000007013627742121     -0.0000043529197258395     -0.0000070770544533884     -0.0000089277661885875     -0.0000100094036962669     -0.0000104592644768515     -0.0000104459419609964     -0.0000101608971116224     -0.0000097946616032233     -0.0000095060677109386     -0.0000093981027141460     -0.0000095060675951250     -0.0000097946614083447     -0.0000101608969326384     -0.0000104459419609964     -0.0000104592648563440     -0.0000100094046288746     -0.0000089277677604245     -0.0000070770566398847     -0.0000043529224101699     -0.0000007013657840641     0.0000038288767306749     0.0000090033473072124     0.0000143296402256865     0.0000190666878452443     0.0000223714436981053     0.0000235609757051898 
    0.0000495945231771850     0.0000474621790049880     0.0000415673710968203     0.0000332011590777713     0.0000239325961355711     0.0000150988502798609     0.0000075275443881561     0.0000015288340764895     -0.0000029503330301185     -0.0000061396946303162     -0.0000083059170231599     -0.0000096826080520408     -0.0000104592648563440     -0.0000108028038730094     -0.0000108784795262635     -0.0000108441125113201     -0.0000108179511080830     -0.0000108441122616619     -0.0000108784790814708     -0.0000108028033594318     -0.0000104592644768515     -0.0000096826080520409     -0.0000083059176258373     -0.0000061396959766983     -0.0000029503351533894     0.0000015288312430379     0.0000075275409930894     0.0000150988465474144     0.0000239325923729518     0.0000332011556748531     0.0000415673684883860     0.0000474621775827461     0.0000495945231771850 
    0.0001012238357057708     0.0000957307877138782     0.0000813007881698553     0.0000631098335235799     0.0000467217684930294     0.0000321292840893887     0.0000197483663570943     0.0000100594854911053     0.0000029010194116845     -0.0000022071930580064     -0.0000057992266976670     -0.0000083059176258373     -0.0000100094046288746     -0.0000110860234191930     -0.0000116817194227105     -0.0000119495785466252     -0.0000120211959581509     -0.0000119495781182689     -0.0000116817186405159     -0.0000110860224419470     -0.0000100094036962669     -0.0000083059170231600     -0.0000057992266976670     -0.0000022071938695462     0.0000029010176683965     0.0000100594827911050     0.0000197483627831936     0.0000321292798627422     0.0000467217640040286     0.0000631098293226555     0.0000813007848856005     0.0000957307859060515     0.0001012238357057708 
    0.0002205314736010673     0.0002088742932833568     0.0001773500854253757     0.0001348639150328783     0.0000922411431479496     0.0000583729648131602     0.0000372059206299565     0.0000223144184232117     0.0000112502200636713     0.0000033510300022550     -0.0000022071938695462     -0.0000061396959766983     -0.0000089277677604245     -0.0000108403027943762     -0.0000120403165680587     -0.0000126726936900441     -0.0000128655312755227     -0.0000126726930718716     -0.0000120403154228329     -0.0000108403013048356     -0.0000089277661885875     -0.0000061396946303162     -0.0000022071930580064     0.0000033510300022550     0.0000112502190264578     0.0000223144161952524     0.0000372059171812733     0.0000583729603217125     0.0000922411380717815     0.0001348639100968196     0.0001773500814825991     0.0002088742910906828     0.0002205314736010673 
    0.0004018308391089590     0.0003829977222629735     0.0003313503063799412     0.0002595286402290833     0.0001832875238495677     0.0001164611452183906     0.0000676277066119473     0.0000392237941002997     0.0000230650263119357     0.0000112502190264578     0.0000029010176683965     -0.0000029503351533894     -0.0000070770566398847     -0.0000099603033233646     -0.0000118578995926620     -0.0000129232674393495     -0.0000132639487446545     -0.0000129232666605950     -0.0000118578981336294     -0.0000099603013720426     -0.0000070770544533884     -0.0000029503330301184     0.0000029010194116845     0.0000112502200636714     0.0000230650263119357     0.0000392237927577009     0.0000676277037398491     0.0001164611408991241     0.0001832875185647997     0.0002595286348518507     0.0003313503019771973     0.0003829977197852709     0.0004018308391089590 
    0.0006226885202995289     0.0005969564795638161     0.0005258208877498276     0.0004250345360882564     0.0003142700510250280     0.0002112439926765576     0.0001281537004756165     0.0000707604440449214     0.0000392237927577008     0.0000223144161952524     0.0000100594827911050     0.0000015288312430379     -0.0000043529224101699     -0.0000084087748555745     -0.0000111097710323202     -0.0000126717525617844     -0.0000131837593691840     -0.0000126717516807748     -0.0000111097693640298     -0.0000084087725697374     -0.0000043529197258395     0.0000015288340764895     0.0000100594854911054     0.0000223144184232117     0.0000392237941002997     0.0000707604440449214     0.0001281536987601810     0.0002112439891764508     0.0003142700461722600     0.0004250345308274146     0.0005258208832959520     0.0005969564770163060     0.0006226885202995289 
    0.0008584171582145008     0.0008269469161927564     0.0007396292869326308     0.0006146394339097392     0.0004741279889447162     0.0003377077163695863     0.0002194989080859958     0.0001281536987601810     0.0000676277037398491     0.0000372059171812733     0.0000197483627831936     0.0000075275409930894     -0.0000007013657840641     -0.0000062128771158308     -0.0000098378347147455     -0.0000119482659104355     -0.0000126475066716557     -0.0000119482649943502     -0.0000098378329612887     -0.0000062128746571655     -0.0000007013627742121     0.0000075275443881561     0.0000197483663570943     0.0000372059206299565     0.0000676277066119473     0.0001281537004756165     0.0002194989080859957     0.0003377077143920936     0.0004741279852865528     0.0006146394294724835     0.0007396292829668820     0.0008269469138650365     0.0008584171582145008 
    0.0010952094226412325     0.0010590493401037837     0.0009587916944785159     0.0008150009440634681     0.0006514749192362307     0.0004878095680328006     0.0003377077143920936     0.0002112439891764508     0.0001164611408991241     0.0000583729603217125     0.0000321292798627422     0.0000150988465474144     0.0000038288767306749     -0.0000034725519366864     -0.0000081477496679517     -0.0000108434071981305     -0.0000117368963023625     -0.0000108434063072813     -0.0000081477479452209     -0.0000034725494688901     0.0000038288798645394     0.0000150988502798609     0.0000321292840893887     0.0000583729648131602     0.0001164611452183906     0.0002112439926765576     0.0003377077163695863     0.0004878095680328006     0.0006514749173590727     0.0008150009410529039     0.0009587916914900644     0.0010590493382673721     0.0010952094226412325 
    0.0013317866754549996     0.0012911278990042055     0.0011788954691030048     0.0010188571190773350     0.0008368144091735520     0.0006514749173590727     0.0004741279852865528     0.0003142700461722600     0.0001832875185647997     0.0000922411380717815     0.0000467217640040286     0.0000239325923729518     0.0000090033473072124     -0.0000003856751963363     -0.0000062112470238984     -0.0000095070618844385     -0.0000105925288427546     -0.0000095070610697292     -0.0000062112454349519     -0.0000003856728796918     0.0000090033503372393     0.0000239325961355711     0.0000467217684930294     0.0000922411431479496     0.0001832875238495678     0.0003142700510250280     0.0004741279889447163     0.0006514749192362307     0.0008368144091735521     0.0010188571177160892     0.0011788954673301840     0.0012911278978086683     0.0013317866754549996 
    0.0015656733581721741     0.0015200641090394060     0.0013949076689632911     0.0012182089307963960     0.0010188571177160892     0.0008150009410529036     0.0006146394294724835     0.0004250345308274146     0.0002595286348518507     0.0001348639100968196     0.0000631098293226555     0.0000332011556748531     0.0000143296402256865     0.0000027291714391231     -0.0000042639923871233     -0.0000081367815750130     -0.0000094003260992511     -0.0000081367808861411     -0.0000042639910357831     0.0000027291734337547     0.0000143296428889357     0.0000332011590777713     0.0000631098335235799     0.0001348639150328783     0.0002595286402290833     0.0004250345360882564     0.0006146394339097392     0.0008150009440634680     0.0010188571190773350     0.0012182089307963960     0.0013949076682861102     0.0015200641084523532     0.0015656733581721741 
    0.0017774427010377734     0.0017267744360472757     0.0015884193298595912     0.0013949076682861104     0.0011788954673301842     0.0009587916914900643     0.0007396292829668821     0.0005258208832959521     0.0003313503019771973     0.0001773500814825990     0.0000813007848856005     0.0000415673684883860     0.0000190666878452443     0.0000054477261060751     -0.0000025835436684126     -0.0000069502544875705     -0.0000083620335961719     -0.0000069502539798754     -0.0000025835426693397     0.0000054477275912414     0.0000190666898526029     0.0000415673710968203     0.0000813007881698554     0.0001773500854253757     0.0003313503063799412     0.0005258208877498277     0.0007396292869326308     0.0009587916944785158     0.0011788954691030048     0.0013949076689632911     0.0015884193298595912     0.0017267744358773921     0.0017774427010377734 
    0.0019300498792404687     0.0018754462011171577     0.0017267744358773921     0.0015200641084523537     0.0012911278978086683     0.0010590493382673725     0.0008269469138650365     0.0005969564770163060     0.0003829977197852709     0.0002088742910906828     0.0000957307859060514     0.0000474621775827460     0.0000223714436981053     0.0000073178010446931     -0.0000014406502267444     -0.0000061455585687333     -0.0000076570141513674     -0.0000061455582970248     -0.0000014406496913551     0.0000073178018431740     0.0000223714447836907     0.0000474621790049880     0.0000957307877138782     0.0002088742932833567     0.0003829977222629736     0.0005969564795638162     0.0008269469161927563     0.0010590493401037842     0.0012911278990042055     0.0015200641090394056     0.0017267744360472753     0.0018754462011171572     0.0019300498792404687 
    0.0019861496128634809     0.0019300498792404687     0.0017774427010377736     0.0015656733581721741     0.0013317866754549996     0.0010952094226412325     0.0008584171582145013     0.0006226885202995290     0.0004018308391089590     0.0002205314736010673     0.0001012238357057707     0.0000495945231771850     0.0000235609757051898     0.0000079859457521894     -0.0000010350839851406     -0.0000058608412248592     -0.0000074076073060638     -0.0000058608412248592     -0.0000010350839851405     0.0000079859457521895     0.0000235609757051898     0.0000495945231771850     0.0001012238357057708     0.0002205314736010673     0.0004018308391089590     0.0006226885202995290     0.0008584171582145012     0.0010952094226412325     0.0013317866754549996     0.0015656733581721741     0.0017774427010377736     0.0019300498792404687     0.0019861496128634809 
    0.0018293151336774309     0.0017772569939833224     0.0016352402746363565     0.0014369940587049275     0.0012162782162151965     0.0009917987225487707     0.0007680349594501562     0.0005487079765431019     0.0003477935355534622     0.0001872641563431081     0.0000857377112021330     0.0000434085386984044     0.0000200879515367851     0.0000060161081989788     -0.0000022444309444984     -0.0000067178166082896     -0.0000081610691495206     -0.0000067178166082896     -0.0000022444309444984     0.0000060161081989788     0.0000200879515367851     0.0000434085386984044     0.0000857377112021330     0.0001872641563431081     0.0003477935355534622     0.0005487079765431019     0.0007680349594501562     0.0009917987225487705     0.0012162782162151965     0.0014369940587049275     0.0016352402746363565     0.0017772569939833224     0.0018293151336774309 
    0.0017772569939833224     0.0017265515739254996     0.0015881015751777932     0.0013944794976607272     0.0011783900113033819     0.0009582753585518624     0.0007391731217571930     0.0005254737390238953     0.0003311257593546119     0.0001772292565910686     0.0000812446621237437     0.0000415358152663844     0.0000190468751025930     0.0000054341623926170     -0.0000025938047483982     -0.0000069588777062685     -0.0000083701559322448     -0.0000069588782235043     -0.0000025938057679236     0.0000054341608732682     0.0000190468730431427     0.0000415358125823560     0.0000812446587324745     0.0001772292524968602     0.0003311257547338708     0.0005254737342556731     0.0007391731173607295     0.0009582753550350616     0.0011783900089752128     0.0013944794964978718     0.0015881015748363521     0.0017265515739254996     0.0017772569939833224 
    0.0016352402746363565     0.0015881015748363523     0.0014590344811876573     0.0012775504143198902     0.0010736618390121090     0.0008653078188394295     0.0006591593530612269     0.0004613493634798593     0.0002855272258688154     0.0001501913764883512     0.0000695301278936326     0.0000363497441168804     0.0000161469997223565     0.0000037999769372488     -0.0000035816687368141     -0.0000076420491123261     -0.0000089625100663918     -0.0000076420500846092     -0.0000035816706504737     0.0000037999740956870     0.0000161469958956130     0.0000363497391749305     0.0000695301217162611     0.0001501913691176159     0.0002855272176621436     0.0004613493551629541     0.0006591593456027935     0.0008653078131512784     0.0010736618355861431     0.0012775504129902515     0.0014590344811876571     0.0015881015751777932     0.0016352402746363565 
    0.0014369940587049272     0.0013944794964978718     0.0012775504129902513     0.0011117890961018584     0.0009240118817774966     0.0007320001381143918     0.0005448734437096227     0.0003708342300856602     0.0002224529678117402     0.0001140462951541168     0.0000550225108944212     0.0000289671498243331     0.0000119724913009508     0.0000014129363077119     -0.0000050395914016804     -0.0000086505051964673     -0.0000098343485408815     -0.0000086505065265040     -0.0000050395940107809     0.0000014129324623843     0.0000119724861888746     0.0000289671433399930     0.0000550225029597703     0.0001140462859061385     0.0002224529577897623     0.0003708342202884401     0.0005448734354100490     0.0007320001324312159     0.0009240118791749519     0.0011117890961018584     0.0012775504143198897     0.0013944794976607265     0.0014369940587049272 
    0.0012162782162151967     0.0011783900089752128     0.0010736618355861429     0.0009240118791749520     0.0007536198614530121     0.0005807133544117779     0.0004169805032492703     0.0002720161220602212     0.0001561105051556449     0.0000783076102820766     0.0000412607532559593     0.0000207604785805026     0.0000072599557817836     -0.0000013291415730011     -0.0000067254516842917     -0.0000098038710926103     -0.0000108211022084262     -0.0000098038726782482     -0.0000067254547764999     -0.0000013291460736526     0.0000072599499229730     0.0000207604713633820     0.0000412607447318897     0.0000783076007384304     0.0001561104952952814     0.0002720161130387934     0.0004169804964405103     0.0005807133508971658     0.0007536198614530119     0.0009240118817774966     0.0010736618390121088     0.0011783900113033821     0.0012162782162151967 
    0.0009917987225487707     0.0009582753550350616     0.0008653078131512781     0.0007320001324312159     0.0005807133508971659     0.0004302213721644080     0.0002938518640305844     0.0001810945194422108     0.0000988218251013066     0.0000506179944385735     0.0000282868318283076     0.0000129204035563909     0.0000026789571165634     -0.0000040318515280390     -0.0000083719088209156     -0.0000108869448637607     -0.0000117216097427302     -0.0000108869466082488     -0.0000083719121941952     -0.0000040318563525067     0.0000026789510177311     0.0000129203963504192     0.0000282868237534467     0.0000506179859524808     0.0000988218170180881     0.0001810945129327566     0.0002938518603599211     0.0004302213721644079     0.0005807133544117778     0.0007320001381143918     0.0008653078188394294     0.0009582753585518624     0.0009917987225487707 
    0.0007680349594501561     0.0007391731173607295     0.0006591593456027935     0.0005448734354100490     0.0004169804964405103     0.0002938518603599211     0.0001886252190006086     0.0001090043766882489     0.0000579647670739296     0.0000330329534656273     0.0000172683863841623     0.0000062057838593107     -0.0000013027527110626     -0.0000063782788779916     -0.0000097350178714790     -0.0000116905640900448     -0.0000123376682211656     -0.0000116905658915026     -0.0000097350213195881     -0.0000063782837064951     -0.0000013027585988212     0.0000062057772655928     0.0000172683795117952     0.0000330329469080182     0.0000579647616702165     0.0001090043734870717     0.0001886252190006087     0.0002938518640305844     0.0004169805032492703     0.0005448734437096227     0.0006591593530612270     0.0007391731217571930     0.0007680349594501561 
    0.0005487079765431020     0.0005254737342556730     0.0004613493551629541     0.0003708342202884401     0.0002720161130387933     0.0001810945129327566     0.0001090043734870716     0.0000605380895335396     0.0000349863763351347     0.0000197173100798393     0.0000086545689881851     0.0000009221935789171     -0.0000044427512738234     -0.0000081575326662446     -0.0000106286444420288     -0.0000120503762527954     -0.0000125142785980666     -0.0000120503779920871     -0.0000106286477351359     -0.0000081575371727782     -0.0000044427565481722     0.0000009221880455910     0.0000086545637612885     0.0000197173058112927     0.0000349863737899021     0.0000605380895335396     0.0001090043766882490     0.0001810945194422108     0.0002720161220602212     0.0003708342300856602     0.0004613493634798593     0.0005254737390238952     0.0005487079765431020 
    0.0003477935355534622     0.0003311257547338709     0.0002855272176621436     0.0002224529577897623     0.0001561104952952814     0.0000988218170180881     0.0000579647616702165     0.0000349863737899021     0.0000204512655743596     0.0000098318354909636     0.0000023202544374187     -0.0000029539750163392     -0.0000066735107849682     -0.0000092583160321442     -0.0000109395659819320     -0.0000118693986639215     -0.0000121634694227283     -0.0000118694002107880     -0.0000109395688779842     -0.0000092583198984520     -0.0000066735151023846     -0.0000029539791860437     0.0000023202510394447     0.0000098318334873834     0.0000204512655743597     0.0000349863763351347     0.0000579647670739297     0.0000988218251013066     0.0001561105051556449     0.0002224529678117402     0.0002855272258688154     0.0003311257593546121     0.0003477935355534622 
    0.0001872641563431081     0.0001772292524968602     0.0001501913691176159     0.0001140462859061384     0.0000783076007384304     0.0000506179859524808     0.0000330329469080182     0.0000197173058112927     0.0000098318334873834     0.0000027870847673298     -0.0000021504971023541     -0.0000056155825025727     -0.0000080348182291206     -0.0000096523576432533     -0.0000106299003398748     -0.0000111221623347462     -0.0000112670358091101     -0.0000111221635762063     -0.0000106299026350190     -0.0000096523606182597     -0.0000080348213538636     -0.0000056155851635485     -0.0000021504986952676     0.0000027870847673298     0.0000098318354909637     0.0000197173100798393     0.0000330329534656274     0.0000506179944385736     0.0000783076102820766     0.0001140462951541168     0.0001501913764883511     0.0001772292565910686     0.0001872641563431081 
    0.0000857377112021330     0.0000812446587324745     0.0000695301217162610     0.0000550225029597702     0.0000412607447318897     0.0000282868237534466     0.0000172683795117952     0.0000086545637612885     0.0000023202510394447     -0.0000021504986952676     -0.0000052289062044946     -0.0000073006965948187     -0.0000086270735001489     -0.0000093856097931135     -0.0000097366258305772     -0.0000098498356542332     -0.0000098685450124968     -0.0000098498365307975     -0.0000097366274235971     -0.0000093856117699516     -0.0000086270753722995     -0.0000073006977952991     -0.0000052289062044946     -0.0000021504971023541     0.0000023202544374187     0.0000086545689881851     0.0000172683863841624     0.0000282868318283076     0.0000412607532559594     0.0000550225108944212     0.0000695301278936326     0.0000812446621237437     0.0000857377112021330 
    0.0000434085386984044     0.0000415358125823560     0.0000363497391749304     0.0000289671433399930     0.0000207604713633820     0.0000129203963504192     0.0000062057772655928     0.0000009221880455910     -0.0000029539791860437     -0.0000056155851635485     -0.0000073006977952991     -0.0000082292920202577     -0.0000085938260789645     -0.0000085782641459596     -0.0000083723080735194     -0.0000081575886894371     -0.0000080692708788691     -0.0000081575892161595     -0.0000083723090027038     -0.0000085782652050390     -0.0000085938268512928     -0.0000082292920202577     -0.0000073006965948187     -0.0000056155825025727     -0.0000029539750163392     0.0000009221935789171     0.0000062057838593107     0.0000129204035563909     0.0000207604785805026     0.0000289671498243331     0.0000363497441168804     0.0000415358152663844     0.0000434085386984044 
    0.0000200879515367851     0.0000190468730431427     0.0000161469958956130     0.0000119724861888746     0.0000072599499229730     0.0000026789510177311     -0.0000013027585988212     -0.0000044427565481722     -0.0000066735151023847     -0.0000080348213538636     -0.0000086270753722996     -0.0000085938268512928     -0.0000081195833036671     -0.0000074214078120878     -0.0000067228907906295     -0.0000062171111556676     -0.0000060334233148675     -0.0000062171114121374     -0.0000067228912137284     -0.0000074214081914589     -0.0000081195833036671     -0.0000085938260789645     -0.0000086270735001489     -0.0000080348182291206     -0.0000066735107849682     -0.0000044427512738234     -0.0000013027527110626     0.0000026789571165634     0.0000072599557817836     0.0000119724913009507     0.0000161469997223565     0.0000190468751025930     0.0000200879515367851 
    0.0000060161081989788     0.0000054341608732682     0.0000037999740956870     0.0000014129324623843     -0.0000013291460736526     -0.0000040318563525067     -0.0000063782837064951     -0.0000081575371727783     -0.0000092583198984521     -0.0000096523606182597     -0.0000093856117699516     -0.0000085782652050390     -0.0000074214081914589     -0.0000061561034762179     -0.0000050327408506061     -0.0000042646186487476     -0.0000039923313175281     -0.0000042646187414845     -0.0000050327409741988     -0.0000061561034762179     -0.0000074214078120878     -0.0000085782641459596     -0.0000093856097931135     -0.0000096523576432533     -0.0000092583160321442     -0.0000081575326662446     -0.0000063782788779916     -0.0000040318515280390     -0.0000013291415730011     0.0000014129363077119     0.0000037999769372488     0.0000054341623926170     0.0000060161081989788 
    -0.0000022444309444984     -0.0000025938057679236     -0.0000035816706504737     -0.0000050395940107809     -0.0000067254547765000     -0.0000083719121941952     -0.0000097350213195881     -0.0000106286477351359     -0.0000109395688779843     -0.0000106299026350189     -0.0000097366274235971     -0.0000083723090027038     -0.0000067228912137284     -0.0000050327409741988     -0.0000035702200792180     -0.0000025788004298325     -0.0000022280856159726     -0.0000025788004496887     -0.0000035702200792180     -0.0000050327408506061     -0.0000067228907906295     -0.0000083723080735194     -0.0000097366258305772     -0.0000106299003398748     -0.0000109395659819320     -0.0000106286444420288     -0.0000097350178714790     -0.0000083719088209156     -0.0000067254516842917     -0.0000050395914016804     -0.0000035816687368140     -0.0000025938047483982     -0.0000022444309444984 
    -0.0000067178166082897     -0.0000069588782235043     -0.0000076420500846093     -0.0000086505065265040     -0.0000098038726782482     -0.0000108869466082488     -0.0000116905658915025     -0.0000120503779920871     -0.0000118694002107880     -0.0000111221635762063     -0.0000098498365307975     -0.0000081575892161595     -0.0000062171114121374     -0.0000042646187414846     -0.0000025788004496887     -0.0000014318474892226     -0.0000010247654901655     -0.0000014318474892226     -0.0000025788004298325     -0.0000042646186487476     -0.0000062171111556676     -0.0000081575886894371     -0.0000098498356542332     -0.0000111221623347462     -0.0000118693986639215     -0.0000120503762527955     -0.0000116905640900448     -0.0000108869448637607     -0.0000098038710926103     -0.0000086505051964673     -0.0000076420491123261     -0.0000069588777062685     -0.0000067178166082897 
    -0.0000081610691495207     -0.0000083701559322449     -0.0000089625100663918     -0.0000098343485408815     -0.0000108211022084262     -0.0000117216097427302     -0.0000123376682211656     -0.0000125142785980666     -0.0000121634694227283     -0.0000112670358091101     -0.0000098685450124968     -0.0000080692708788692     -0.0000060334233148675     -0.0000039923313175281     -0.0000022280856159726     -0.0000010247654901655     -0.0000005969157455737     -0.0000010247654901655     -0.0000022280856159726     -0.0000039923313175281     -0.0000060334233148675     -0.0000080692708788691     -0.0000098685450124968     -0.0000112670358091101     -0.0000121634694227283     -0.0000125142785980666     -0.0000123376682211656     -0.0000117216097427302     -0.0000108211022084262     -0.0000098343485408816     -0.0000089625100663919     -0.0000083701559322449     -0.0000081610691495207 
    -0.0000067178166082896     -0.0000069588777062685     -0.0000076420491123261     -0.0000086505051964673     -0.0000098038710926102     -0.0000108869448637607     -0.0000116905640900448     -0.0000120503762527955     -0.0000118693986639215     -0.0000111221623347462     -0.0000098498356542332     -0.0000081575886894371     -0.0000062171111556676     -0.0000042646186487476     -0.0000025788004298325     -0.0000014318474892226     -0.0000010247654901655     -0.0000014318474892226     -0.0000025788004496887     -0.0000042646187414845     -0.0000062171114121374     -0.0000081575892161595     -0.0000098498365307975     -0.0000111221635762063     -0.0000118694002107880     -0.0000120503779920871     -0.0000116905658915025     -0.0000108869466082488     -0.0000098038726782482     -0.0000086505065265040     -0.0000076420500846093     -0.0000069588782235043     -0.0000067178166082896 
    -0.0000022444309444984     -0.0000025938047483982     -0.0000035816687368140     -0.0000050395914016804     -0.0000067254516842917     -0.0000083719088209155     -0.0000097350178714790     -0.0000106286444420288     -0.0000109395659819319     -0.0000106299003398748     -0.0000097366258305772     -0.0000083723080735194     -0.0000067228907906295     -0.0000050327408506061     -0.0000035702200792180     -0.0000025788004496887     -0.0000022280856159726     -0.0000025788004298325     -0.0000035702200792180     -0.0000050327409741988     -0.0000067228912137284     -0.0000083723090027038     -0.0000097366274235971     -0.0000106299026350189     -0.0000109395688779842     -0.0000106286477351359     -0.0000097350213195881     -0.0000083719121941952     -0.0000067254547765000     -0.0000050395940107809     -0.0000035816706504737     -0.0000025938057679236     -0.0000022444309444984 
    0.0000060161081989788     0.0000054341623926170     0.0000037999769372488     0.0000014129363077119     -0.0000013291415730011     -0.0000040318515280390     -0.0000063782788779916     -0.0000081575326662446     -0.0000092583160321442     -0.0000096523576432533     -0.0000093856097931135     -0.0000085782641459596     -0.0000074214078120878     -0.0000061561034762179     -0.0000050327409741988     -0.0000042646187414846     -0.0000039923313175281     -0.0000042646186487476     -0.0000050327408506061     -0.0000061561034762179     -0.0000074214081914589     -0.0000085782652050390     -0.0000093856117699516     -0.0000096523606182597     -0.0000092583198984520     -0.0000081575371727783     -0.0000063782837064951     -0.0000040318563525067     -0.0000013291460736526     0.0000014129324623843     0.0000037999740956870     0.0000054341608732682     0.0000060161081989788 
    0.0000200879515367851     0.0000190468751025930     0.0000161469997223565     0.0000119724913009508     0.0000072599557817836     0.0000026789571165634     -0.0000013027527110626     -0.0000044427512738234     -0.0000066735107849682     -0.0000080348182291206     -0.0000086270735001489     -0.0000085938260789645     -0.0000081195833036670     -0.0000074214081914589     -0.0000067228912137284     -0.0000062171114121374     -0.0000060334233148675     -0.0000062171111556676     -0.0000067228907906295     -0.0000074214078120878     -0.0000081195833036671     -0.0000085938268512928     -0.0000086270753722996     -0.0000080348213538636     -0.0000066735151023847     -0.0000044427565481722     -0.0000013027585988212     0.0000026789510177311     0.0000072599499229730     0.0000119724861888746     0.0000161469958956130     0.0000190468730431427     0.0000200879515367851 
    0.0000434085386984044     0.0000415358152663844     0.0000363497441168804     0.0000289671498243331     0.0000207604785805026     0.0000129204035563909     0.0000062057838593107     0.0000009221935789171     -0.0000029539750163392     -0.0000056155825025727     -0.0000073006965948187     -0.0000082292920202577     -0.0000085938268512928     -0.0000085782652050390     -0.0000083723090027038     -0.0000081575892161595     -0.0000080692708788691     -0.0000081575886894371     -0.0000083723080735194     -0.0000085782641459596     -0.0000085938260789645     -0.0000082292920202577     -0.0000073006977952991     -0.0000056155851635485     -0.0000029539791860437     0.0000009221880455910     0.0000062057772655928     0.0000129203963504191     0.0000207604713633820     0.0000289671433399930     0.0000363497391749304     0.0000415358125823560     0.0000434085386984044 
    0.0000857377112021330     0.0000812446621237437     0.0000695301278936326     0.0000550225108944211     0.0000412607532559594     0.0000282868318283076     0.0000172683863841624     0.0000086545689881851     0.0000023202544374187     -0.0000021504971023541     -0.0000052289062044946     -0.0000073006977952991     -0.0000086270753722995     -0.0000093856117699516     -0.0000097366274235971     -0.0000098498365307975     -0.0000098685450124968     -0.0000098498356542332     -0.0000097366258305772     -0.0000093856097931135     -0.0000086270735001489     -0.0000073006965948187     -0.0000052289062044946     -0.0000021504986952676     0.0000023202510394447     0.0000086545637612885     0.0000172683795117952     0.0000282868237534467     0.0000412607447318897     0.0000550225029597703     0.0000695301217162610     0.0000812446587324745     0.0000857377112021330 
    0.0001872641563431082     0.0001772292565910687     0.0001501913764883512     0.0001140462951541167     0.0000783076102820766     0.0000506179944385735     0.0000330329534656273     0.0000197173100798393     0.0000098318354909636     0.0000027870847673298     -0.0000021504986952676     -0.0000056155851635485     -0.0000080348213538635     -0.0000096523606182597     -0.0000106299026350189     -0.0000111221635762063     -0.0000112670358091101     -0.0000111221623347462     -0.0000106299003398748     -0.0000096523576432533     -0.0000080348182291206     -0.0000056155825025728     -0.0000021504971023541     0.0000027870847673298     0.0000098318334873834     0.0000197173058112927     0.0000330329469080182     0.0000506179859524808     0.0000783076007384304     0.0001140462859061385     0.0001501913691176160     0.0001772292524968602     0.0001872641563431082 
    0.0003477935355534622     0.0003311257593546121     0.0002855272258688154     0.0002224529678117402     0.0001561105051556449     0.0000988218251013066     0.0000579647670739297     0.0000349863763351346     0.0000204512655743596     0.0000098318334873834     0.0000023202510394446     -0.0000029539791860437     -0.0000066735151023846     -0.0000092583198984521     -0.0000109395688779843     -0.0000118694002107879     -0.0000121634694227283     -0.0000118693986639215     -0.0000109395659819319     -0.0000092583160321442     -0.0000066735107849682     -0.0000029539750163392     0.0000023202544374187     0.0000098318354909636     0.0000204512655743597     0.0000349863737899021     0.0000579647616702165     0.0000988218170180881     0.0001561104952952814     0.0002224529577897623     0.0002855272176621436     0.0003311257547338709     0.0003477935355534622 
    0.0005487079765431019     0.0005254737390238951     0.0004613493634798592     0.0003708342300856602     0.0002720161220602212     0.0001810945194422108     0.0001090043766882490     0.0000605380895335396     0.0000349863737899021     0.0000197173058112927     0.0000086545637612885     0.0000009221880455910     -0.0000044427565481722     -0.0000081575371727783     -0.0000106286477351360     -0.0000120503779920871     -0.0000125142785980666     -0.0000120503762527955     -0.0000106286444420288     -0.0000081575326662447     -0.0000044427512738234     0.0000009221935789171     0.0000086545689881851     0.0000197173100798393     0.0000349863763351347     0.0000605380895335396     0.0001090043734870716     0.0001810945129327566     0.0002720161130387933     0.0003708342202884401     0.0004613493551629541     0.0005254737342556730     0.0005487079765431019 
    0.0007680349594501561     0.0007391731217571928     0.0006591593530612269     0.0005448734437096227     0.0004169805032492703     0.0002938518640305844     0.0001886252190006086     0.0001090043734870716     0.0000579647616702165     0.0000330329469080182     0.0000172683795117952     0.0000062057772655928     -0.0000013027585988212     -0.0000063782837064952     -0.0000097350213195880     -0.0000116905658915025     -0.0000123376682211656     -0.0000116905640900448     -0.0000097350178714790     -0.0000063782788779916     -0.0000013027527110626     0.0000062057838593107     0.0000172683863841624     0.0000330329534656274     0.0000579647670739297     0.0001090043766882490     0.0001886252190006087     0.0002938518603599211     0.0004169804964405104     0.0005448734354100490     0.0006591593456027935     0.0007391731173607295     0.0007680349594501561 
    0.0009917987225487707     0.0009582753585518623     0.0008653078188394294     0.0007320001381143918     0.0005807133544117778     0.0004302213721644079     0.0002938518603599211     0.0001810945129327565     0.0000988218170180881     0.0000506179859524808     0.0000282868237534466     0.0000129203963504192     0.0000026789510177311     -0.0000040318563525067     -0.0000083719121941952     -0.0000108869466082488     -0.0000117216097427302     -0.0000108869448637608     -0.0000083719088209156     -0.0000040318515280390     0.0000026789571165634     0.0000129204035563910     0.0000282868318283076     0.0000506179944385735     0.0000988218251013066     0.0001810945194422108     0.0002938518640305844     0.0004302213721644080     0.0005807133508971659     0.0007320001324312159     0.0008653078131512781     0.0009582753550350618     0.0009917987225487707 
    0.0012162782162151967     0.0011783900113033821     0.0010736618390121088     0.0009240118817774966     0.0007536198614530119     0.0005807133508971658     0.0004169804964405103     0.0002720161130387933     0.0001561104952952814     0.0000783076007384304     0.0000412607447318897     0.0000207604713633820     0.0000072599499229730     -0.0000013291460736527     -0.0000067254547765000     -0.0000098038726782482     -0.0000108211022084263     -0.0000098038710926103     -0.0000067254516842917     -0.0000013291415730011     0.0000072599557817836     0.0000207604785805026     0.0000412607532559593     0.0000783076102820765     0.0001561105051556449     0.0002720161220602212     0.0004169805032492703     0.0005807133544117779     0.0007536198614530121     0.0009240118791749520     0.0010736618355861429     0.0011783900089752128     0.0012162782162151967 
    0.0014369940587049272     0.0013944794976607265     0.0012775504143198897     0.0011117890961018584     0.0009240118791749519     0.0007320001324312159     0.0005448734354100490     0.0003708342202884401     0.0002224529577897623     0.0001140462859061385     0.0000550225029597703     0.0000289671433399930     0.0000119724861888746     0.0000014129324623843     -0.0000050395940107809     -0.0000086505065265040     -0.0000098343485408815     -0.0000086505051964673     -0.0000050395914016804     0.0000014129363077119     0.0000119724913009508     0.0000289671498243332     0.0000550225108944212     0.0001140462951541168     0.0002224529678117402     0.0003708342300856602     0.0005448734437096227     0.0007320001381143918     0.0009240118817774966     0.0011117890961018584     0.0012775504129902513     0.0013944794964978714     0.0014369940587049272 
    0.0016352402746363565     0.0015881015751777932     0.0014590344811876571     0.0012775504129902517     0.0010736618355861431     0.0008653078131512784     0.0006591593456027935     0.0004613493551629541     0.0002855272176621436     0.0001501913691176160     0.0000695301217162611     0.0000363497391749304     0.0000161469958956130     0.0000037999740956870     -0.0000035816706504737     -0.0000076420500846093     -0.0000089625100663918     -0.0000076420491123261     -0.0000035816687368140     0.0000037999769372488     0.0000161469997223566     0.0000363497441168804     0.0000695301278936327     0.0001501913764883512     0.0002855272258688155     0.0004613493634798593     0.0006591593530612269     0.0008653078188394295     0.0010736618390121090     0.0012775504143198902     0.0014590344811876573     0.0015881015748363523     0.0016352402746363565 
    0.0017772569939833224     0.0017265515739254996     0.0015881015748363523     0.0013944794964978720     0.0011783900089752130     0.0009582753550350618     0.0007391731173607295     0.0005254737342556731     0.0003311257547338708     0.0001772292524968602     0.0000812446587324744     0.0000415358125823560     0.0000190468730431427     0.0000054341608732682     -0.0000025938057679236     -0.0000069588782235043     -0.0000083701559322448     -0.0000069588777062685     -0.0000025938047483982     0.0000054341623926171     0.0000190468751025931     0.0000415358152663844     0.0000812446621237438     0.0001772292565910687     0.0003311257593546121     0.0005254737390238953     0.0007391731217571928     0.0009582753585518624     0.0011783900113033819     0.0013944794976607268     0.0015881015751777932     0.0017265515739254996     0.0017772569939833224 
    0.0018293151336774309     0.0017772569939833224     0.0016352402746363565     0.0014369940587049275     0.0012162782162151965     0.0009917987225487707     0.0007680349594501562     0.0005487079765431019     0.0003477935355534622     0.0001872641563431081     0.0000857377112021330     0.0000434085386984044     0.0000200879515367851     0.0000060161081989788     -0.0000022444309444984     -0.0000067178166082896     -0.0000081610691495206     -0.0000067178166082896     -0.0000022444309444984     0.0000060161081989788     0.0000200879515367851     0.0000434085386984044     0.0000857377112021330     0.0001872641563431081     0.0003477935355534622     0.0005487079765431019     0.0007680349594501562     0.0009917987225487705     0.0012162782162151965     0.0014369940587049275     0.0016352402746363565     0.0017772569939833224     0.0018293151336774309 
    0.0016121530620089681     0.0015652828026568514     0.0014367836610028782     0.0012556911633251901     0.0010518348084505769     0.0008436363267436556     0.0006387099514440644     0.0004438751128621760     0.0002725943827000865     0.0001423540863840660     0.0000661214908530744     0.0000346444199419852     0.0000151209593966398     0.0000031603407182415     -0.0000040174902885808     -0.0000079782129507702     -0.0000092682064010083     -0.0000079782129507702     -0.0000040174902885808     0.0000031603407182415     0.0000151209593966399     0.0000346444199419852     0.0000661214908530744     0.0001423540863840660     0.0002725943827000866     0.0004438751128621761     0.0006387099514440644     0.0008436363267436556     0.0010518348084505769     0.0012556911633251901     0.0014367836610028782     0.0015652828026568514     0.0016121530620089681 
    0.0015652828026568519     0.0015195904254803141     0.0013942224175756079     0.0012172794160403362     0.0010177596110383035     0.0008138844053459226     0.0006136605939558750     0.0004242984885972318     0.0002590607675278678     0.0001346167232010825     0.0000629908008818677     0.0000331294271751359     0.0000142834455248162     0.0000026968812436401     -0.0000042887504756995     -0.0000081577303961083     -0.0000094200979962845     -0.0000081577311138412     -0.0000042887518918669     0.0000026968791349095     0.0000142834426802333     0.0000331294235013086     0.0000629907962908028     0.0001346167177105893     0.0002590607613599876     0.0004242984822165452     0.0006136605880108288     0.0008138844005076242     0.0010177596077668581     0.0012172794143712265     0.0013942224170766990     0.0015195904254803141     0.0015652828026568519 
    0.0014367836610028782     0.0013942224170766986     0.0012771747559783514     0.0011112771403314957     0.0009234071323361860     0.0007313863621801614     0.0005443379243220387     0.0003704345705266949     0.0002222016339768994     0.0001139146334732956     0.0000549565398176173     0.0000289262601540664     0.0000119457467557106     0.0000013940078968856     -0.0000050542198569578     -0.0000086629326271079     -0.0000098460915645677     -0.0000086629339887423     -0.0000050542225391742     0.0000013940039190291     0.0000119457414286351     0.0000289262533448559     0.0000549565314133662     0.0001139146235604391     0.0002222016230172569     0.0003704345594214422     0.0005443379142858440     0.0007313863544125821     0.0009234071275674825     0.0011112771384434743     0.0012771747559783514     0.0013942224175756072     0.0014367836610028782 
    0.0012556911633251899     0.0012172794143712265     0.0011112771384434747     0.0009601691889873259     0.0007882940485124790     0.0006132595201833525     0.0004457581883363428     0.0002949255125668977     0.0001717141337277340     0.0000866671562399258     0.0000447359824972017     0.0000229250031674959     0.0000085713238668513     -0.0000005082393121120     -0.0000061743677700736     -0.0000093928920208164     -0.0000104548160954908     -0.0000093928939062538     -0.0000061743714710211     -0.0000005082447575312     0.0000085713166736482     0.0000229249941484260     0.0000447359716212912     0.0000866671437422626     0.0001717141203227017     0.0002949254995130622     0.0004457581772365153     0.0006132595124997589     0.0007882940449377707     0.0009601691889873260     0.0011112771403314957     0.0012172794160403362     0.0012556911633251899 
    0.0010518348084505769     0.0010177596077668581     0.0009234071275674826     0.0007882940449377708     0.0006345640664933749     0.0004798976417024775     0.0003364151087196787     0.0002134951402460818     0.0001195104727420711     0.0000604725050912078     0.0000335052495437720     0.0000162363553039282     0.0000047607197620431     -0.0000026766756469285     -0.0000074370904391905     -0.0000101830106187641     -0.0000110938046189854     -0.0000101830128926227     -0.0000074370948759349     -0.0000026766820929289     0.0000047607114263086     0.0000162363451602412     0.0000335052377533712     0.0000604724921061980     0.0001195104595061682     0.0002134951282313326     0.0003364150996591241     0.0004798976369966591     0.0006345640664933749     0.0007882940485124788     0.0009234071323361860     0.0010177596110383037     0.0010518348084505769 
    0.0008436363267436556     0.0008138844005076240     0.0007313863544125821     0.0006132595124997591     0.0004798976369966591     0.0003488731619121865     0.0002327955337708398     0.0001400586780207808     0.0000756746142234709     0.0000411393606492096     0.0000228465353529732     0.0000098475717673948     0.0000010829900488474     -0.0000047608322855300     -0.0000085928339245911     -0.0000108259539967154     -0.0000115674184338216     -0.0000108259565196140     -0.0000085928388060223     -0.0000047608392563624     0.0000010829812901545     0.0000098475615389352     0.0000228465240739053     0.0000411393490025991     0.0000756746033045748     0.0001400586693274112     0.0002327955288942564     0.0003488731619121865     0.0004798976417024774     0.0006132595201833521     0.0007313863621801618     0.0008138844053459225     0.0008436363267436556 
    0.0006387099514440644     0.0006136605880108288     0.0005443379142858440     0.0004457581772365153     0.0003364150996591241     0.0002327955288942563     0.0001464712878421106     0.0000836425172367336     0.0000458258781115151     0.0000271377558007514     0.0000138037533747980     0.0000044120725963528     -0.0000020406460387765     -0.0000064598413975876     -0.0000094007488622970     -0.0000111114020648544     -0.0000116754401231249     -0.0000111114046847062     -0.0000094007538800694     -0.0000064598484163611     -0.0000020406545542256     0.0000044120631565087     0.0000138037436800476     0.0000271377467076514     0.0000458258707434313     0.0000836425129316279     0.0001464712878421106     0.0002327955337708398     0.0003364151087196788     0.0004457581883363428     0.0005443379243220388     0.0006136605939558749     0.0006387099514440644 
    0.0004438751128621761     0.0004242984822165453     0.0003704345594214421     0.0002949254995130623     0.0002134951282313326     0.0001400586693274112     0.0000836425129316279     0.0000476008301433858     0.0000289987967299951     0.0000161016370917940     0.0000067724942424702     0.0000002156672901961     -0.0000043716910099422     -0.0000075599931129866     -0.0000096693206898569     -0.0000108685489771057     -0.0000112560347467615     -0.0000108685515202575     -0.0000096693255064814     -0.0000075599996970376     -0.0000043716986830725     0.0000002156593082766     0.0000067724867970240     0.0000161016311045030     0.0000289987932171374     0.0000476008301433858     0.0000836425172367336     0.0001400586780207808     0.0002134951402460818     0.0002949255125668977     0.0003704345705266949     0.0004242984885972318     0.0004438751128621761 
    0.0002725943827000865     0.0002590607613599876     0.0002222016230172569     0.0001717141203227016     0.0001195104595061682     0.0000756746033045748     0.0000458258707434313     0.0000289987932171373     0.0000168141764769773     0.0000079412983095119     0.0000016696150541756     -0.0000027338931547590     -0.0000058250184644709     -0.0000079402212313785     -0.0000092774326292367     -0.0000099911329762019     -0.0000102108982099092     -0.0000099911352586293     -0.0000092774368993015     -0.0000079402269197701     -0.0000058250247878448     -0.0000027338992158015     0.0000016696101671205     0.0000079412954652514     0.0000168141764769773     0.0000289987967299951     0.0000458258781115150     0.0000756746142234709     0.0001195104727420710     0.0001717141337277339     0.0002222016339768994     0.0002590607675278678     0.0002725943827000865 
    0.0001423540863840660     0.0001346167177105893     0.0001139146235604391     0.0000866671437422625     0.0000604724921061980     0.0000411393490025991     0.0000271377467076514     0.0000161016311045030     0.0000079412954652514     0.0000021649753610931     -0.0000018349544281501     -0.0000045790998885022     -0.0000064172892695112     -0.0000075617506083966     -0.0000081779366542765     -0.0000084407881013389     -0.0000085068274768242     -0.0000084407899638444     -0.0000081779400876066     -0.0000075617550374695     -0.0000064172938908833     -0.0000045791037914630     -0.0000018349567417327     0.0000021649753610931     0.0000079412983095119     0.0000161016370917940     0.0000271377558007514     0.0000411393606492096     0.0000604725050912077     0.0000866671562399258     0.0001139146334732955     0.0001346167232010825     0.0001423540863840660 
    0.0000661214908530744     0.0000629907962908028     0.0000549565314133662     0.0000447359716212912     0.0000335052377533712     0.0000228465240739053     0.0000138037436800476     0.0000067724867970241     0.0000016696101671205     -0.0000018349567417327     -0.0000041224723998215     -0.0000055108591499057     -0.0000062297229910940     -0.0000064619775646100     -0.0000063979180064395     -0.0000062435897519211     -0.0000061697736378501     -0.0000062435911041456     -0.0000063979204472546     -0.0000064619805641469     -0.0000062297258003105     -0.0000055108609309187     -0.0000041224723998216     -0.0000018349544281501     0.0000016696150541756     0.0000067724942424702     0.0000138037533747980     0.0000228465353529733     0.0000335052495437720     0.0000447359824972017     0.0000549565398176173     0.0000629908008818677     0.0000661214908530744 
    0.0000346444199419852     0.0000331294235013086     0.0000289262533448559     0.0000229249941484259     0.0000162363451602411     0.0000098475615389351     0.0000044120631565088     0.0000002156593082766     -0.0000027338992158015     -0.0000045791037914630     -0.0000055108609309187     -0.0000057202171975551     -0.0000053989706235453     -0.0000047609567295140     -0.0000040478280853535     -0.0000034987239792621     -0.0000032933512261089     -0.0000034987248275277     -0.0000040478295617711     -0.0000047609583821944     -0.0000053989718061792     -0.0000057202171975551     -0.0000055108591499058     -0.0000045790998885022     -0.0000027338931547590     0.0000002156672901961     0.0000044120725963528     0.0000098475717673948     0.0000162363553039282     0.0000229250031674959     0.0000289262601540665     0.0000331294271751360     0.0000346444199419852 
    0.0000151209593966398     0.0000142834426802333     0.0000119457414286351     0.0000085713166736482     0.0000047607114263085     0.0000010829812901545     -0.0000020406545542255     -0.0000043716986830725     -0.0000058250247878448     -0.0000064172938908833     -0.0000062297258003104     -0.0000053989718061792     -0.0000041252283718317     -0.0000026720961810065     -0.0000013384160485060     -0.0000004040113323353     -0.0000000684278641897     -0.0000004040117720706     -0.0000013384167562610     -0.0000026720967960102     -0.0000041252283718317     -0.0000053989706235453     -0.0000062297229910940     -0.0000064172892695112     -0.0000058250184644709     -0.0000043716910099422     -0.0000020406460387765     0.0000010829900488474     0.0000047607197620431     0.0000085713238668513     0.0000119457467557106     0.0000142834455248162     0.0000151209593966398 
    0.0000031603407182415     0.0000026968791349096     0.0000013940039190291     -0.0000005082447575312     -0.0000026766820929289     -0.0000047608392563624     -0.0000064598484163611     -0.0000075599996970376     -0.0000079402269197702     -0.0000075617550374695     -0.0000064619805641469     -0.0000047609583821944     -0.0000026720967960102     -0.0000004969121878966     0.0000014125415938022     0.0000027209785347359     0.0000031865350299800     0.0000027209783614593     0.0000014125413726073     -0.0000004969121878966     -0.0000026720961810065     -0.0000047609567295140     -0.0000064619775646100     -0.0000075617506083966     -0.0000079402212313785     -0.0000075599931129866     -0.0000064598413975876     -0.0000047608322855301     -0.0000026766756469285     -0.0000005082393121120     0.0000013940078968856     0.0000026968812436401     0.0000031603407182415 
    -0.0000040174902885808     -0.0000042887518918669     -0.0000050542225391742     -0.0000061743714710211     -0.0000074370948759350     -0.0000085928388060223     -0.0000094007538800694     -0.0000096693255064814     -0.0000092774368993015     -0.0000081779400876066     -0.0000063979204472545     -0.0000040478295617711     -0.0000013384167562610     0.0000014125413726073     0.0000038087419812783     0.0000054498852589599     0.0000060344360851096     0.0000054498852177131     0.0000038087419812783     0.0000014125415938022     -0.0000013384160485060     -0.0000040478280853535     -0.0000063979180064395     -0.0000081779366542766     -0.0000092774326292368     -0.0000096693206898569     -0.0000094007488622970     -0.0000085928339245911     -0.0000074370904391906     -0.0000061743677700736     -0.0000050542198569578     -0.0000042887504756995     -0.0000040174902885808 
    -0.0000079782129507701     -0.0000081577311138412     -0.0000086629339887423     -0.0000093928939062538     -0.0000101830128926227     -0.0000108259565196140     -0.0000111114046847061     -0.0000108685515202575     -0.0000099911352586293     -0.0000084407899638444     -0.0000062435911041456     -0.0000034987248275277     -0.0000004040117720706     0.0000027209783614593     0.0000054498852177131     0.0000073277844265727     0.0000079988519728538     0.0000073277844265727     0.0000054498852589599     0.0000027209785347359     -0.0000004040113323353     -0.0000034987239792621     -0.0000062435897519211     -0.0000084407881013389     -0.0000099911329762019     -0.0000108685489771057     -0.0000111114020648544     -0.0000108259539967154     -0.0000101830106187642     -0.0000093928920208164     -0.0000086629326271078     -0.0000081577303961082     -0.0000079782129507701 
    -0.0000092682064010082     -0.0000094200979962845     -0.0000098460915645677     -0.0000104548160954908     -0.0000110938046189854     -0.0000115674184338216     -0.0000116754401231248     -0.0000112560347467615     -0.0000102108982099092     -0.0000085068274768242     -0.0000061697736378500     -0.0000032933512261089     -0.0000000684278641897     0.0000031865350299800     0.0000060344360851095     0.0000079988519728538     0.0000087018883231274     0.0000079988519728538     0.0000060344360851096     0.0000031865350299800     -0.0000000684278641897     -0.0000032933512261089     -0.0000061697736378500     -0.0000085068274768242     -0.0000102108982099092     -0.0000112560347467615     -0.0000116754401231249     -0.0000115674184338216     -0.0000110938046189854     -0.0000104548160954908     -0.0000098460915645677     -0.0000094200979962845     -0.0000092682064010082 
    -0.0000079782129507702     -0.0000081577303961082     -0.0000086629326271078     -0.0000093928920208164     -0.0000101830106187642     -0.0000108259539967154     -0.0000111114020648544     -0.0000108685489771057     -0.0000099911329762019     -0.0000084407881013389     -0.0000062435897519211     -0.0000034987239792621     -0.0000004040113323353     0.0000027209785347359     0.0000054498852589599     0.0000073277844265727     0.0000079988519728538     0.0000073277844265727     0.0000054498852177131     0.0000027209783614593     -0.0000004040117720706     -0.0000034987248275276     -0.0000062435911041456     -0.0000084407899638444     -0.0000099911352586293     -0.0000108685515202575     -0.0000111114046847061     -0.0000108259565196140     -0.0000101830128926227     -0.0000093928939062538     -0.0000086629339887423     -0.0000081577311138412     -0.0000079782129507702 
    -0.0000040174902885808     -0.0000042887504756995     -0.0000050542198569577     -0.0000061743677700735     -0.0000074370904391905     -0.0000085928339245911     -0.0000094007488622970     -0.0000096693206898569     -0.0000092774326292367     -0.0000081779366542765     -0.0000063979180064395     -0.0000040478280853535     -0.0000013384160485060     0.0000014125415938022     0.0000038087419812783     0.0000054498852177131     0.0000060344360851096     0.0000054498852589599     0.0000038087419812783     0.0000014125413726074     -0.0000013384167562610     -0.0000040478295617710     -0.0000063979204472545     -0.0000081779400876066     -0.0000092774368993015     -0.0000096693255064814     -0.0000094007538800694     -0.0000085928388060223     -0.0000074370948759350     -0.0000061743714710211     -0.0000050542225391743     -0.0000042887518918669     -0.0000040174902885808 
    0.0000031603407182415     0.0000026968812436401     0.0000013940078968856     -0.0000005082393121120     -0.0000026766756469285     -0.0000047608322855301     -0.0000064598413975876     -0.0000075599931129866     -0.0000079402212313785     -0.0000075617506083966     -0.0000064619775646100     -0.0000047609567295140     -0.0000026720961810065     -0.0000004969121878966     0.0000014125413726073     0.0000027209783614593     0.0000031865350299800     0.0000027209785347359     0.0000014125415938022     -0.0000004969121878966     -0.0000026720967960102     -0.0000047609583821944     -0.0000064619805641469     -0.0000075617550374694     -0.0000079402269197701     -0.0000075599996970376     -0.0000064598484163611     -0.0000047608392563624     -0.0000026766820929289     -0.0000005082447575312     0.0000013940039190291     0.0000026968791349095     0.0000031603407182415 
    0.0000151209593966399     0.0000142834455248162     0.0000119457467557107     0.0000085713238668513     0.0000047607197620431     0.0000010829900488475     -0.0000020406460387765     -0.0000043716910099422     -0.0000058250184644709     -0.0000064172892695112     -0.0000062297229910940     -0.0000053989706235453     -0.0000041252283718317     -0.0000026720967960102     -0.0000013384167562610     -0.0000004040117720706     -0.0000000684278641897     -0.0000004040113323353     -0.0000013384160485060     -0.0000026720961810065     -0.0000041252283718317     -0.0000053989718061792     -0.0000062297258003105     -0.0000064172938908833     -0.0000058250247878448     -0.0000043716986830725     -0.0000020406545542255     0.0000010829812901545     0.0000047607114263086     0.0000085713166736482     0.0000119457414286351     0.0000142834426802334     0.0000151209593966399 
    0.0000346444199419852     0.0000331294271751360     0.0000289262601540665     0.0000229250031674959     0.0000162363553039282     0.0000098475717673948     0.0000044120725963528     0.0000002156672901961     -0.0000027338931547590     -0.0000045790998885022     -0.0000055108591499057     -0.0000057202171975551     -0.0000053989718061792     -0.0000047609583821944     -0.0000040478295617711     -0.0000034987248275276     -0.0000032933512261089     -0.0000034987239792621     -0.0000040478280853535     -0.0000047609567295140     -0.0000053989706235453     -0.0000057202171975551     -0.0000055108609309187     -0.0000045791037914630     -0.0000027338992158015     0.0000002156593082766     0.0000044120631565088     0.0000098475615389351     0.0000162363451602411     0.0000229249941484260     0.0000289262533448559     0.0000331294235013086     0.0000346444199419852 
    0.0000661214908530744     0.0000629908008818677     0.0000549565398176173     0.0000447359824972017     0.0000335052495437720     0.0000228465353529732     0.0000138037533747980     0.0000067724942424702     0.0000016696150541756     -0.0000018349544281501     -0.0000041224723998215     -0.0000055108609309187     -0.0000062297258003105     -0.0000064619805641469     -0.0000063979204472546     -0.0000062435911041456     -0.0000061697736378500     -0.0000062435897519212     -0.0000063979180064395     -0.0000064619775646100     -0.0000062297229910940     -0.0000055108591499057     -0.0000041224723998215     -0.0000018349567417327     0.0000016696101671205     0.0000067724867970241     0.0000138037436800476     0.0000228465240739053     0.0000335052377533712     0.0000447359716212912     0.0000549565314133662     0.0000629907962908028     0.0000661214908530744 
    0.0001423540863840660     0.0001346167232010825     0.0001139146334732955     0.0000866671562399257     0.0000604725050912077     0.0000411393606492096     0.0000271377558007514     0.0000161016370917940     0.0000079412983095119     0.0000021649753610931     -0.0000018349567417327     -0.0000045791037914629     -0.0000064172938908833     -0.0000075617550374694     -0.0000081779400876066     -0.0000084407899638444     -0.0000085068274768241     -0.0000084407881013389     -0.0000081779366542766     -0.0000075617506083966     -0.0000064172892695112     -0.0000045790998885022     -0.0000018349544281501     0.0000021649753610931     0.0000079412954652514     0.0000161016311045030     0.0000271377467076514     0.0000411393490025991     0.0000604724921061980     0.0000866671437422626     0.0001139146235604392     0.0001346167177105893     0.0001423540863840660 
    0.0002725943827000865     0.0002590607675278678     0.0002222016339768994     0.0001717141337277339     0.0001195104727420711     0.0000756746142234709     0.0000458258781115150     0.0000289987967299951     0.0000168141764769773     0.0000079412954652514     0.0000016696101671205     -0.0000027338992158015     -0.0000058250247878448     -0.0000079402269197701     -0.0000092774368993015     -0.0000099911352586293     -0.0000102108982099092     -0.0000099911329762019     -0.0000092774326292368     -0.0000079402212313785     -0.0000058250184644709     -0.0000027338931547591     0.0000016696150541756     0.0000079412983095119     0.0000168141764769773     0.0000289987932171374     0.0000458258707434314     0.0000756746033045748     0.0001195104595061682     0.0001717141203227017     0.0002222016230172569     0.0002590607613599876     0.0002725943827000865 
    0.0004438751128621760     0.0004242984885972318     0.0003704345705266949     0.0002949255125668976     0.0002134951402460818     0.0001400586780207808     0.0000836425172367336     0.0000476008301433858     0.0000289987932171373     0.0000161016311045030     0.0000067724867970241     0.0000002156593082766     -0.0000043716986830725     -0.0000075599996970376     -0.0000096693255064814     -0.0000108685515202575     -0.0000112560347467615     -0.0000108685489771058     -0.0000096693206898569     -0.0000075599931129867     -0.0000043716910099422     0.0000002156672901961     0.0000067724942424702     0.0000161016370917940     0.0000289987967299951     0.0000476008301433859     0.0000836425129316280     0.0001400586693274112     0.0002134951282313326     0.0002949254995130623     0.0003704345594214421     0.0004242984822165452     0.0004438751128621760 
    0.0006387099514440644     0.0006136605939558749     0.0005443379243220388     0.0004457581883363428     0.0003364151087196787     0.0002327955337708398     0.0001464712878421106     0.0000836425129316279     0.0000458258707434313     0.0000271377467076514     0.0000138037436800476     0.0000044120631565087     -0.0000020406545542256     -0.0000064598484163612     -0.0000094007538800694     -0.0000111114046847061     -0.0000116754401231249     -0.0000111114020648544     -0.0000094007488622970     -0.0000064598413975876     -0.0000020406460387765     0.0000044120725963528     0.0000138037533747979     0.0000271377558007514     0.0000458258781115151     0.0000836425172367337     0.0001464712878421107     0.0002327955288942564     0.0003364150996591241     0.0004457581772365153     0.0005443379142858440     0.0006136605880108288     0.0006387099514440644 
    0.0008436363267436555     0.0008138844053459223     0.0007313863621801617     0.0006132595201833521     0.0004798976417024774     0.0003488731619121865     0.0002327955288942563     0.0001400586693274112     0.0000756746033045748     0.0000411393490025991     0.0000228465240739052     0.0000098475615389351     0.0000010829812901545     -0.0000047608392563624     -0.0000085928388060223     -0.0000108259565196140     -0.0000115674184338216     -0.0000108259539967154     -0.0000085928339245911     -0.0000047608322855300     0.0000010829900488474     0.0000098475717673948     0.0000228465353529733     0.0000411393606492096     0.0000756746142234709     0.0001400586780207808     0.0002327955337708398     0.0003488731619121865     0.0004798976369966591     0.0006132595124997591     0.0007313863544125821     0.0008138844005076240     0.0008436363267436555 
    0.0010518348084505769     0.0010177596110383037     0.0009234071323361860     0.0007882940485124788     0.0006345640664933749     0.0004798976369966591     0.0003364150996591241     0.0002134951282313326     0.0001195104595061682     0.0000604724921061980     0.0000335052377533712     0.0000162363451602411     0.0000047607114263085     -0.0000026766820929289     -0.0000074370948759350     -0.0000101830128926227     -0.0000110938046189854     -0.0000101830106187642     -0.0000074370904391905     -0.0000026766756469285     0.0000047607197620431     0.0000162363553039282     0.0000335052495437720     0.0000604725050912078     0.0001195104727420711     0.0002134951402460818     0.0003364151087196787     0.0004798976417024775     0.0006345640664933749     0.0007882940449377708     0.0009234071275674826     0.0010177596077668581     0.0010518348084505769 
    0.0012556911633251899     0.0012172794160403362     0.0011112771403314957     0.0009601691889873260     0.0007882940449377708     0.0006132595124997589     0.0004457581772365153     0.0002949254995130622     0.0001717141203227016     0.0000866671437422626     0.0000447359716212912     0.0000229249941484259     0.0000085713166736482     -0.0000005082447575313     -0.0000061743714710211     -0.0000093928939062538     -0.0000104548160954908     -0.0000093928920208164     -0.0000061743677700736     -0.0000005082393121120     0.0000085713238668513     0.0000229250031674959     0.0000447359824972017     0.0000866671562399258     0.0001717141337277340     0.0002949255125668977     0.0004457581883363428     0.0006132595201833525     0.0007882940485124790     0.0009601691889873259     0.0011112771384434747     0.0012172794143712265     0.0012556911633251899 
    0.0014367836610028782     0.0013942224175756072     0.0012771747559783514     0.0011112771384434743     0.0009234071275674825     0.0007313863544125821     0.0005443379142858440     0.0003704345594214421     0.0002222016230172569     0.0001139146235604392     0.0000549565314133662     0.0000289262533448559     0.0000119457414286351     0.0000013940039190291     -0.0000050542225391743     -0.0000086629339887423     -0.0000098460915645677     -0.0000086629326271078     -0.0000050542198569578     0.0000013940078968856     0.0000119457467557106     0.0000289262601540665     0.0000549565398176174     0.0001139146334732956     0.0002222016339768995     0.0003704345705266949     0.0005443379243220388     0.0007313863621801616     0.0009234071323361860     0.0011112771403314957     0.0012771747559783514     0.0013942224170766986     0.0014367836610028782 
    0.0015652828026568519     0.0015195904254803141     0.0013942224170766990     0.0012172794143712265     0.0010177596077668581     0.0008138844005076242     0.0006136605880108288     0.0004242984822165452     0.0002590607613599875     0.0001346167177105893     0.0000629907962908028     0.0000331294235013086     0.0000142834426802333     0.0000026968791349095     -0.0000042887518918669     -0.0000081577311138412     -0.0000094200979962845     -0.0000081577303961083     -0.0000042887504756995     0.0000026968812436401     0.0000142834455248162     0.0000331294271751359     0.0000629908008818677     0.0001346167232010825     0.0002590607675278678     0.0004242984885972318     0.0006136605939558749     0.0008138844053459226     0.0010177596110383035     0.0012172794160403362     0.0013942224175756076     0.0015195904254803137     0.0015652828026568519 
    0.0016121530620089681     0.0015652828026568514     0.0014367836610028782     0.0012556911633251901     0.0010518348084505769     0.0008436363267436556     0.0006387099514440644     0.0004438751128621760     0.0002725943827000865     0.0001423540863840660     0.0000661214908530744     0.0000346444199419852     0.0000151209593966398     0.0000031603407182415     -0.0000040174902885808     -0.0000079782129507702     -0.0000092682064010083     -0.0000079782129507702     -0.0000040174902885808     0.0000031603407182415     0.0000151209593966399     0.0000346444199419852     0.0000661214908530744     0.0001423540863840660     0.0002725943827000866     0.0004438751128621761     0.0006387099514440644     0.0008436363267436556     0.0010518348084505769     0.0012556911633251901     0.0014367836610028782     0.0015652828026568514     0.0016121530620089681 
    0.0013730886589679815     0.0013312709215197514     0.0012159267108545384     0.0010516798217067502     0.0008651339557451574     0.0006753109311934144     0.0004933560155536361     0.0003286022994377889     0.0001926540595948235     0.0000971552782993831     0.0000485061763034094     0.0000249569242382884     0.0000095505446948282     -0.0000001034896269149     -0.0000060687036897927     -0.0000094338684870793     -0.0000105408640071569     -0.0000094338684870793     -0.0000060687036897927     -0.0000001034896269149     0.0000095505446948283     0.0000249569242382884     0.0000485061763034095     0.0000971552782993832     0.0001926540595948235     0.0003286022994377889     0.0004933560155536362     0.0006753109311934144     0.0008651339557451574     0.0010516798217067502     0.0012159267108545384     0.0013312709215197514     0.0013730886589679815 
    0.0013312709215197518     0.0012904910229901852     0.0011779516892187830     0.0010175625686745828     0.0008352842562074408     0.0006499270346161437     0.0004727865387507314     0.0003132796336816260     0.0001826738426682507     0.0000919220448613410     0.0000465503343725153     0.0000238241657354611     0.0000089310633965537     -0.0000004376317941121     -0.0000062518217533971     -0.0000095417352671774     -0.0000106253564561681     -0.0000095417361325278     -0.0000062518234643686     -0.0000004376343405980     0.0000089310599835817     0.0000238241613849388     0.0000465503290267242     0.0000919220385696943     0.0001826738356759583     0.0003132796264654598     0.0004727865319797047     0.0006499270290219565     0.0008352842523500925     0.0010175625666670311     0.0011779516886086933     0.0012904910229901852     0.0013312709215197518 
    0.0012159267108545382     0.0011779516886086929     0.0010730039271835629     0.0009231040167417952     0.0007525457348807932     0.0005796293176167559     0.0004160458879823430     0.0002713317825712451     0.0001556909868099713     0.0000780894055419593     0.0000411370112424784     0.0000206809820229778     0.0000072061426322369     -0.0000013682908644914     -0.0000067562649663945     -0.0000098303133300492     -0.0000108461694592720     -0.0000098303149903851     -0.0000067562682431853     -0.0000013682957200151     0.0000072061361758167     0.0000206809738861755     0.0000411370013830868     0.0000780893941214526     0.0001556909743510953     0.0002713317700148761     0.0004160458765902448     0.0005796293086914943     0.0007525457293053260     0.0009231040144931801     0.0010730039271835629     0.0011779516892187834     0.0012159267108545382 
    0.0010516798217067504     0.0010175625666670315     0.0009231040144931803     0.0007878709827584681     0.0006340624885649357     0.0004793934407923593     0.0003359843624090204     0.0002131842987452692     0.0001193230780395641     0.0000603735086433978     0.0000334442557937667     0.0000161961529033857     0.0000047328268044292     -0.0000026973680190603     -0.0000074535923380114     -0.0000101972781843864     -0.0000111073637915164     -0.0000101972805170194     -0.0000074535969246000     -0.0000026973747598838     0.0000047328179673292     0.0000161961419888596     0.0000334442428939004     0.0000603734941229422     0.0001193230627240026     0.0002131842839727412     0.0003359843498559139     0.0004793934320348684     0.0006340624844344229     0.0007878709827584681     0.0009231040167417952     0.0010175625686745830     0.0010516798217067504 
    0.0008651339557451574     0.0008352842523500925     0.0007525457293053262     0.0006340624844344229     0.0004999955548907745     0.0003674140463278757     0.0002484958795648305     0.0001517110363793003     0.0000827676948691889     0.0000441717136892100     0.0000249299405805011     0.0000112156157466565     0.0000019818346501093     -0.0000041466971437348     -0.0000081517125144619     -0.0000104844526973604     -0.0000112595939819999     -0.0000104844555481254     -0.0000081517180861146     -0.0000041467052299798     0.0000019818242701183     0.0000112156033040758     0.0000249299264160379     0.0000441716984372611     0.0000827676796293106     0.0001517110227358797     0.0002484958693355024     0.0003674140410023511     0.0004999955548907745     0.0006340624885649357     0.0007525457348807931     0.0008352842562074408     0.0008651339557451574 
    0.0006753109311934144     0.0006499270290219565     0.0005796293086914943     0.0004793934320348684     0.0003674140410023511     0.0002597151367703270     0.0001676861367713931     0.0000980441510043838     0.0000534765988919035     0.0000314692800834093     0.0000168709988067172     0.0000065068746532112     -0.0000005891656805116     -0.0000054186473319304     -0.0000086276412903092     -0.0000105015845231933     -0.0000111221688027427     -0.0000105015877160174     -0.0000086276474785773     -0.0000054186561635524     -0.0000005891767071088     0.0000065068619520743     0.0000168709850782508     0.0000314692662286595     0.0000534765861836149     0.0000980441410604091     0.0001676861312521157     0.0002597151367703271     0.0003674140463278757     0.0004793934407923593     0.0005796293176167560     0.0006499270346161438     0.0006753109311934144 
    0.0004933560155536359     0.0004727865319797048     0.0004160458765902448     0.0003359843498559139     0.0002484958693355023     0.0001676861312521156     0.0001030572711618148     0.0000588933504202246     0.0000349549109853239     0.0000206799383350206     0.0000100869986303021     0.0000025938034405746     -0.0000026281379270527     -0.0000062500019997763     -0.0000086642923729830     -0.0000100569394441820     -0.0000105121683525804     -0.0000100569427802137     -0.0000086642987728652     -0.0000062500109501019     -0.0000026281487321403     0.0000025937915997570     0.0000100869866828190     0.0000206799273669163     0.0000349549022909244     0.0000588933454371482     0.0001030572711618150     0.0001676861367713932     0.0002484958795648305     0.0003359843624090204     0.0004160458879823430     0.0004727865387507315     0.0004933560155536359 
    0.0003286022994377889     0.0003132796264654597     0.0002713317700148761     0.0002131842839727412     0.0001517110227358796     0.0000980441410604090     0.0000588933454371481     0.0000359415475555796     0.0000224313403719537     0.0000122401256812957     0.0000049011990031240     -0.0000002773186302701     -0.0000039192605213507     -0.0000064400632106300     -0.0000080764772623021     -0.0000089811061333566     -0.0000092671624677292     -0.0000089811093928478     -0.0000080764834418282     -0.0000064400716537125     -0.0000039192703201503     -0.0000002773287282906     0.0000049011897210831     0.0000122401183546577     0.0000224313361592266     0.0000359415475555796     0.0000588933504202247     0.0000980441510043838     0.0001517110363793003     0.0002131842987452692     0.0002713317825712451     0.0003132796336816260     0.0003286022994377889 
    0.0001926540595948235     0.0001826738356759583     0.0001556909743510953     0.0001193230627240025     0.0000827676796293106     0.0000534765861836148     0.0000349549022909243     0.0000224313361592266     0.0000129315194459776     0.0000060756599965686     0.0000012671746097868     -0.0000020719006751723     -0.0000043600573877562     -0.0000058509461655650     -0.0000067194037706067     -0.0000071355077568796     -0.0000072526533381205     -0.0000071355107163571     -0.0000067194093042536     -0.0000058509535217484     -0.0000043600655254660     -0.0000020719084095219     0.0000012671684492835     0.0000060756564656839     0.0000129315194459776     0.0000224313403719538     0.0000349549109853240     0.0000534765988919036     0.0000827676948691890     0.0001193230780395641     0.0001556909868099714     0.0001826738426682507     0.0001926540595948235 
    0.0000971552782993832     0.0000919220385696943     0.0000780893941214526     0.0000603734941229421     0.0000441716984372611     0.0000314692662286595     0.0000206799273669163     0.0000122401183546577     0.0000060756564656839     0.0000018008956736127     -0.0000010498480032531     -0.0000028681551305165     -0.0000039217988720883     -0.0000043997310914369     -0.0000044910219288599     -0.0000044141478720240     -0.0000043623381854628     -0.0000044141503387057     -0.0000044910264604161     -0.0000043997369043254     -0.0000039218048903525     -0.0000028681601639374     -0.0000010498509529619     0.0000018008956736127     0.0000060756599965686     0.0000122401256812957     0.0000206799383350206     0.0000314692800834093     0.0000441717136892100     0.0000603735086433979     0.0000780894055419594     0.0000919220448613411     0.0000971552782993832 
    0.0000485061763034094     0.0000465503290267242     0.0000411370013830868     0.0000334442428939004     0.0000249299264160379     0.0000168709850782508     0.0000100869866828190     0.0000049011897210831     0.0000012671684492834     -0.0000010498509529619     -0.0000023225908962363     -0.0000027846688441770     -0.0000026313107435630     -0.0000020679497295393     -0.0000013497412289763     -0.0000007611925693625     -0.0000005348862765102     -0.0000007611944226057     -0.0000013497445474039     -0.0000020679537604017     -0.0000026313144681818     -0.0000027846711731832     -0.0000023225908962363     -0.0000010498480032531     0.0000012671746097868     0.0000049011990031240     0.0000100869986303021     0.0000168709988067172     0.0000249299405805011     0.0000334442557937667     0.0000411370112424785     0.0000465503343725153     0.0000485061763034094 
    0.0000249569242382884     0.0000238241613849388     0.0000206809738861755     0.0000161961419888596     0.0000112156033040757     0.0000065068619520743     0.0000025937915997570     -0.0000002773287282906     -0.0000020719084095220     -0.0000028681601639374     -0.0000027846711731832     -0.0000019620569239273     -0.0000005896539125096     0.0000010606922877574     0.0000026383976153322     0.0000037761937291171     0.0000041910217922516     0.0000037761925074203     0.0000026383955205435     0.0000010606899908441     -0.0000005896555198683     -0.0000019620569239273     -0.0000027846688441770     -0.0000028681551305164     -0.0000020719006751723     -0.0000002773186302700     0.0000025938034405746     0.0000065068746532112     0.0000112156157466565     0.0000161961529033857     0.0000206809820229778     0.0000238241657354611     0.0000249569242382884 
    0.0000095505446948283     0.0000089310599835818     0.0000072061361758167     0.0000047328179673292     0.0000019818242701183     -0.0000005891767071088     -0.0000026281487321403     -0.0000039192703201503     -0.0000043600655254660     -0.0000039218048903525     -0.0000026313144681818     -0.0000005896555198683     0.0000019877936107492     0.0000047481095340058     0.0000072314152610040     0.0000089640578890638     0.0000095864506846720     0.0000089640572127571     0.0000072314141992308     0.0000047481086415743     0.0000019877936107492     -0.0000005896539125095     -0.0000026313107435630     -0.0000039217988720883     -0.0000043600573877562     -0.0000039192605213507     -0.0000026281379270527     -0.0000005891656805115     0.0000019818346501094     0.0000047328268044292     0.0000072061426322369     0.0000089310633965537     0.0000095505446948283 
    -0.0000001034896269149     -0.0000004376343405979     -0.0000013682957200151     -0.0000026973747598838     -0.0000041467052299798     -0.0000054186561635524     -0.0000062500109501019     -0.0000064400716537125     -0.0000058509535217484     -0.0000043997369043254     -0.0000020679537604017     0.0000010606899908441     0.0000047481086415743     0.0000085719180298510     0.0000119601941819952     0.0000143085187981772     0.0000151500289041386     0.0000143085185097806     0.0000119601938275741     0.0000085719180298510     0.0000047481095340057     0.0000010606922877574     -0.0000020679497295393     -0.0000043997310914370     -0.0000058509461655650     -0.0000064400632106300     -0.0000062500019997763     -0.0000054186473319304     -0.0000041466971437348     -0.0000026973680190603     -0.0000013682908644913     -0.0000004376317941121     -0.0000001034896269149 
    -0.0000060687036897927     -0.0000062518234643686     -0.0000067562682431852     -0.0000074535969246000     -0.0000081517180861146     -0.0000086276474785773     -0.0000086642987728652     -0.0000080764834418282     -0.0000067194093042536     -0.0000044910264604161     -0.0000013497445474039     0.0000026383955205434     0.0000072314141992308     0.0000119601938275741     0.0000161517287070416     0.0000190646784245971     0.0000201106762001318     0.0000190646783500397     0.0000161517287070416     0.0000119601941819952     0.0000072314152610040     0.0000026383976153322     -0.0000013497412289763     -0.0000044910219288598     -0.0000067194037706067     -0.0000080764772623020     -0.0000086642923729830     -0.0000086276412903092     -0.0000081517125144618     -0.0000074535923380113     -0.0000067562649663944     -0.0000062518217533970     -0.0000060687036897927 
    -0.0000094338684870793     -0.0000095417361325277     -0.0000098303149903851     -0.0000101972805170194     -0.0000104844555481254     -0.0000105015877160174     -0.0000100569427802137     -0.0000089811093928478     -0.0000071355107163571     -0.0000044141503387057     -0.0000007611944226057     0.0000037761925074203     0.0000089640572127571     0.0000143085185097807     0.0000190646783500397     0.0000223841493841086     0.0000235792271015995     0.0000223841493841086     0.0000190646784245971     0.0000143085187981772     0.0000089640578890638     0.0000037761937291171     -0.0000007611925693625     -0.0000044141478720240     -0.0000071355077568796     -0.0000089811061333565     -0.0000100569394441820     -0.0000105015845231932     -0.0000104844526973604     -0.0000101972781843863     -0.0000098303133300491     -0.0000095417352671774     -0.0000094338684870793 
    -0.0000105408640071570     -0.0000106253564561681     -0.0000108461694592720     -0.0000111073637915165     -0.0000112595939819999     -0.0000111221688027427     -0.0000105121683525804     -0.0000092671624677292     -0.0000072526533381205     -0.0000043623381854629     -0.0000005348862765101     0.0000041910217922516     0.0000095864506846720     0.0000151500289041386     0.0000201106762001318     0.0000235792271015995     0.0000248293292432563     0.0000235792271015995     0.0000201106762001318     0.0000151500289041386     0.0000095864506846720     0.0000041910217922517     -0.0000005348862765101     -0.0000043623381854628     -0.0000072526533381205     -0.0000092671624677291     -0.0000105121683525804     -0.0000111221688027427     -0.0000112595939819999     -0.0000111073637915165     -0.0000108461694592720     -0.0000106253564561681     -0.0000105408640071570 
    -0.0000094338684870793     -0.0000095417352671774     -0.0000098303133300492     -0.0000101972781843864     -0.0000104844526973605     -0.0000105015845231933     -0.0000100569394441820     -0.0000089811061333566     -0.0000071355077568796     -0.0000044141478720240     -0.0000007611925693625     0.0000037761937291171     0.0000089640578890638     0.0000143085187981772     0.0000190646784245971     0.0000223841493841086     0.0000235792271015995     0.0000223841493841087     0.0000190646783500397     0.0000143085185097807     0.0000089640572127571     0.0000037761925074203     -0.0000007611944226057     -0.0000044141503387057     -0.0000071355107163571     -0.0000089811093928478     -0.0000100569427802137     -0.0000105015877160174     -0.0000104844555481254     -0.0000101972805170194     -0.0000098303149903851     -0.0000095417361325277     -0.0000094338684870793 
    -0.0000060687036897927     -0.0000062518217533970     -0.0000067562649663944     -0.0000074535923380114     -0.0000081517125144619     -0.0000086276412903092     -0.0000086642923729830     -0.0000080764772623020     -0.0000067194037706067     -0.0000044910219288599     -0.0000013497412289763     0.0000026383976153321     0.0000072314152610040     0.0000119601941819952     0.0000161517287070416     0.0000190646783500397     0.0000201106762001318     0.0000190646784245971     0.0000161517287070416     0.0000119601938275741     0.0000072314141992308     0.0000026383955205435     -0.0000013497445474039     -0.0000044910264604161     -0.0000067194093042536     -0.0000080764834418282     -0.0000086642987728652     -0.0000086276474785773     -0.0000081517180861146     -0.0000074535969246000     -0.0000067562682431852     -0.0000062518234643686     -0.0000060687036897927 
    -0.0000001034896269149     -0.0000004376317941121     -0.0000013682908644914     -0.0000026973680190603     -0.0000041466971437348     -0.0000054186473319304     -0.0000062500019997763     -0.0000064400632106300     -0.0000058509461655650     -0.0000043997310914370     -0.0000020679497295394     0.0000010606922877574     0.0000047481095340058     0.0000085719180298510     0.0000119601938275741     0.0000143085185097807     0.0000151500289041386     0.0000143085187981772     0.0000119601941819952     0.0000085719180298510     0.0000047481086415743     0.0000010606899908441     -0.0000020679537604016     -0.0000043997369043254     -0.0000058509535217484     -0.0000064400716537125     -0.0000062500109501019     -0.0000054186561635525     -0.0000041467052299798     -0.0000026973747598838     -0.0000013682957200151     -0.0000004376343405980     -0.0000001034896269149 
    0.0000095505446948283     0.0000089310633965537     0.0000072061426322369     0.0000047328268044292     0.0000019818346501093     -0.0000005891656805115     -0.0000026281379270527     -0.0000039192605213507     -0.0000043600573877562     -0.0000039217988720883     -0.0000026313107435630     -0.0000005896539125095     0.0000019877936107492     0.0000047481086415743     0.0000072314141992308     0.0000089640572127571     0.0000095864506846720     0.0000089640578890638     0.0000072314152610041     0.0000047481095340058     0.0000019877936107492     -0.0000005896555198683     -0.0000026313144681818     -0.0000039218048903525     -0.0000043600655254659     -0.0000039192703201503     -0.0000026281487321403     -0.0000005891767071088     0.0000019818242701183     0.0000047328179673292     0.0000072061361758167     0.0000089310599835818     0.0000095505446948283 
    0.0000249569242382884     0.0000238241657354611     0.0000206809820229778     0.0000161961529033857     0.0000112156157466565     0.0000065068746532112     0.0000025938034405746     -0.0000002773186302700     -0.0000020719006751723     -0.0000028681551305165     -0.0000027846688441770     -0.0000019620569239273     -0.0000005896555198683     0.0000010606899908441     0.0000026383955205434     0.0000037761925074203     0.0000041910217922516     0.0000037761937291171     0.0000026383976153322     0.0000010606922877574     -0.0000005896539125095     -0.0000019620569239273     -0.0000027846711731832     -0.0000028681601639374     -0.0000020719084095219     -0.0000002773287282906     0.0000025937915997570     0.0000065068619520743     0.0000112156033040758     0.0000161961419888596     0.0000206809738861756     0.0000238241613849388     0.0000249569242382884 
    0.0000485061763034094     0.0000465503343725153     0.0000411370112424784     0.0000334442557937667     0.0000249299405805010     0.0000168709988067172     0.0000100869986303021     0.0000049011990031240     0.0000012671746097868     -0.0000010498480032531     -0.0000023225908962363     -0.0000027846711731832     -0.0000026313144681818     -0.0000020679537604017     -0.0000013497445474039     -0.0000007611944226058     -0.0000005348862765102     -0.0000007611925693625     -0.0000013497412289763     -0.0000020679497295393     -0.0000026313107435630     -0.0000027846688441770     -0.0000023225908962363     -0.0000010498509529619     0.0000012671684492835     0.0000049011897210831     0.0000100869866828190     0.0000168709850782508     0.0000249299264160379     0.0000334442428939004     0.0000411370013830868     0.0000465503290267242     0.0000485061763034094 
    0.0000971552782993832     0.0000919220448613411     0.0000780894055419594     0.0000603735086433979     0.0000441717136892100     0.0000314692800834093     0.0000206799383350206     0.0000122401256812957     0.0000060756599965686     0.0000018008956736127     -0.0000010498509529619     -0.0000028681601639374     -0.0000039218048903525     -0.0000043997369043254     -0.0000044910264604161     -0.0000044141503387057     -0.0000043623381854629     -0.0000044141478720240     -0.0000044910219288598     -0.0000043997310914369     -0.0000039217988720883     -0.0000028681551305164     -0.0000010498480032531     0.0000018008956736127     0.0000060756564656840     0.0000122401183546577     0.0000206799273669164     0.0000314692662286595     0.0000441716984372612     0.0000603734941229422     0.0000780893941214526     0.0000919220385696943     0.0000971552782993832 
    0.0001926540595948235     0.0001826738426682507     0.0001556909868099714     0.0001193230780395641     0.0000827676948691890     0.0000534765988919035     0.0000349549109853240     0.0000224313403719537     0.0000129315194459776     0.0000060756564656839     0.0000012671684492834     -0.0000020719084095220     -0.0000043600655254660     -0.0000058509535217484     -0.0000067194093042536     -0.0000071355107163571     -0.0000072526533381205     -0.0000071355077568796     -0.0000067194037706067     -0.0000058509461655650     -0.0000043600573877562     -0.0000020719006751723     0.0000012671746097869     0.0000060756599965687     0.0000129315194459776     0.0000224313361592266     0.0000349549022909244     0.0000534765861836149     0.0000827676796293106     0.0001193230627240026     0.0001556909743510954     0.0001826738356759583     0.0001926540595948235 
    0.0003286022994377889     0.0003132796336816260     0.0002713317825712451     0.0002131842987452692     0.0001517110363793003     0.0000980441510043837     0.0000588933504202246     0.0000359415475555796     0.0000224313361592265     0.0000122401183546577     0.0000049011897210831     -0.0000002773287282907     -0.0000039192703201504     -0.0000064400716537125     -0.0000080764834418282     -0.0000089811093928478     -0.0000092671624677292     -0.0000089811061333565     -0.0000080764772623020     -0.0000064400632106300     -0.0000039192605213507     -0.0000002773186302700     0.0000049011990031240     0.0000122401256812958     0.0000224313403719538     0.0000359415475555796     0.0000588933454371481     0.0000980441410604091     0.0001517110227358796     0.0002131842839727412     0.0002713317700148761     0.0003132796264654597     0.0003286022994377889 
    0.0004933560155536359     0.0004727865387507315     0.0004160458879823430     0.0003359843624090204     0.0002484958795648304     0.0001676861367713931     0.0001030572711618148     0.0000588933454371481     0.0000349549022909243     0.0000206799273669163     0.0000100869866828190     0.0000025937915997570     -0.0000026281487321403     -0.0000062500109501019     -0.0000086642987728652     -0.0000100569427802137     -0.0000105121683525805     -0.0000100569394441820     -0.0000086642923729830     -0.0000062500019997763     -0.0000026281379270527     0.0000025938034405746     0.0000100869986303021     0.0000206799383350206     0.0000349549109853240     0.0000588933504202247     0.0001030572711618149     0.0001676861312521157     0.0002484958693355024     0.0003359843498559139     0.0004160458765902448     0.0004727865319797048     0.0004933560155536359 
    0.0006753109311934144     0.0006499270346161438     0.0005796293176167560     0.0004793934407923593     0.0003674140463278757     0.0002597151367703271     0.0001676861312521156     0.0000980441410604091     0.0000534765861836149     0.0000314692662286595     0.0000168709850782508     0.0000065068619520742     -0.0000005891767071088     -0.0000054186561635524     -0.0000086276474785773     -0.0000105015877160174     -0.0000111221688027427     -0.0000105015845231933     -0.0000086276412903092     -0.0000054186473319304     -0.0000005891656805115     0.0000065068746532112     0.0000168709988067173     0.0000314692800834093     0.0000534765988919036     0.0000980441510043839     0.0001676861367713932     0.0002597151367703271     0.0003674140410023511     0.0004793934320348684     0.0005796293086914944     0.0006499270290219565     0.0006753109311934144 
    0.0008651339557451574     0.0008352842562074409     0.0007525457348807931     0.0006340624885649357     0.0004999955548907745     0.0003674140410023510     0.0002484958693355023     0.0001517110227358797     0.0000827676796293106     0.0000441716984372611     0.0000249299264160379     0.0000112156033040757     0.0000019818242701182     -0.0000041467052299798     -0.0000081517180861146     -0.0000104844555481254     -0.0000112595939819999     -0.0000104844526973605     -0.0000081517125144619     -0.0000041466971437348     0.0000019818346501093     0.0000112156157466565     0.0000249299405805011     0.0000441717136892100     0.0000827676948691890     0.0001517110363793004     0.0002484958795648305     0.0003674140463278757     0.0004999955548907745     0.0006340624844344229     0.0007525457293053262     0.0008352842523500925     0.0008651339557451574 
    0.0010516798217067504     0.0010175625686745830     0.0009231040167417952     0.0007878709827584681     0.0006340624844344229     0.0004793934320348684     0.0003359843498559139     0.0002131842839727412     0.0001193230627240025     0.0000603734941229421     0.0000334442428939004     0.0000161961419888595     0.0000047328179673291     -0.0000026973747598838     -0.0000074535969246000     -0.0000101972805170194     -0.0000111073637915165     -0.0000101972781843864     -0.0000074535923380113     -0.0000026973680190603     0.0000047328268044292     0.0000161961529033857     0.0000334442557937667     0.0000603735086433979     0.0001193230780395641     0.0002131842987452692     0.0003359843624090204     0.0004793934407923594     0.0006340624885649357     0.0007878709827584681     0.0009231040144931803     0.0010175625666670315     0.0010516798217067504 
    0.0012159267108545382     0.0011779516892187834     0.0010730039271835629     0.0009231040144931803     0.0007525457293053260     0.0005796293086914943     0.0004160458765902448     0.0002713317700148761     0.0001556909743510953     0.0000780893941214526     0.0000411370013830868     0.0000206809738861755     0.0000072061361758166     -0.0000013682957200151     -0.0000067562682431853     -0.0000098303149903851     -0.0000108461694592720     -0.0000098303133300492     -0.0000067562649663945     -0.0000013682908644914     0.0000072061426322369     0.0000206809820229778     0.0000411370112424785     0.0000780894055419594     0.0001556909868099714     0.0002713317825712451     0.0004160458879823430     0.0005796293176167560     0.0007525457348807932     0.0009231040167417952     0.0010730039271835629     0.0011779516886086929     0.0012159267108545382 
    0.0013312709215197518     0.0012904910229901852     0.0011779516886086933     0.0010175625666670311     0.0008352842523500925     0.0006499270290219565     0.0004727865319797047     0.0003132796264654597     0.0001826738356759582     0.0000919220385696943     0.0000465503290267242     0.0000238241613849388     0.0000089310599835817     -0.0000004376343405980     -0.0000062518234643686     -0.0000095417361325278     -0.0000106253564561681     -0.0000095417352671774     -0.0000062518217533970     -0.0000004376317941121     0.0000089310633965537     0.0000238241657354611     0.0000465503343725154     0.0000919220448613411     0.0001826738426682507     0.0003132796336816261     0.0004727865387507315     0.0006499270346161437     0.0008352842562074408     0.0010175625686745828     0.0011779516892187830     0.0012904910229901852     0.0013312709215197518 
    0.0013730886589679815     0.0013312709215197514     0.0012159267108545384     0.0010516798217067502     0.0008651339557451574     0.0006753109311934144     0.0004933560155536361     0.0003286022994377889     0.0001926540595948235     0.0000971552782993831     0.0000485061763034094     0.0000249569242382884     0.0000095505446948282     -0.0000001034896269149     -0.0000060687036897927     -0.0000094338684870793     -0.0000105408640071569     -0.0000094338684870793     -0.0000060687036897927     -0.0000001034896269149     0.0000095505446948283     0.0000249569242382884     0.0000485061763034095     0.0000971552782993832     0.0001926540595948235     0.0003286022994377889     0.0004933560155536362     0.0006753109311934144     0.0008651339557451574     0.0010516798217067502     0.0012159267108545384     0.0013312709215197514     0.0013730886589679815 
    0.0011319698379147023     0.0010947037577383279     0.0009914293494984164     0.0008434320474056145     0.0006752414619287777     0.0005068766237717523     0.0003521589632736358     0.0002212369479301703     0.0001223954672549092     0.0000610181590384823     0.0000333024234585158     0.0000157451795827595     0.0000041492334312025     -0.0000033367306004169     -0.0000081144070595388     -0.0000108644303177936     -0.0000117755281541641     -0.0000108644303177937     -0.0000081144070595389     -0.0000033367306004169     0.0000041492334312025     0.0000157451795827595     0.0000333024234585158     0.0000610181590384823     0.0001223954672549092     0.0002212369479301703     0.0003521589632736358     0.0005068766237717523     0.0006752414619287777     0.0008434320474056145     0.0009914293494984162     0.0010947037577383279     0.0011319698379147023 
    0.0010947037577383281     0.0010584049473893833     0.0009577975892551400     0.0008136119159118331     0.0006498283703590612     0.0004861562511411727     0.0003362982129399436     0.0002102301047377459     0.0001158520284676665     0.0000580496065721910     0.0000319275446953800     0.0000149655591829189     0.0000037362119645259     -0.0000035414038809806     -0.0000082027314048619     -0.0000108909960798034     -0.0000117821431604926     -0.0000108909970423197     -0.0000082027333137507     -0.0000035414067215220     0.0000037362081875909     0.0000149655544492504     0.0000319275390099419     0.0000580496000351248     0.0001158520213372845     0.0002102300974549140     0.0003362982061094947     0.0004861562454511447     0.0006498283663821966     0.0008136119138113965     0.0009577975886087597     0.0010584049473893833     0.0010947037577383281 
    0.0009914293494984166     0.0009577975886087595     0.0008645572406264006     0.0007309426548555597     0.0005794576339295720     0.0004289634922447528     0.0002927857074153578     0.0001803344824689849     0.0000983687418009459     0.0000503710720979685     0.0000281267140234489     0.0000128129418113648     0.0000026031398505214     -0.0000040888406657813     -0.0000084177764610114     -0.0000109268262526395     -0.0000117595855798419     -0.0000109268281217471     -0.0000084177801603893     -0.0000040888461451811     0.0000026031326244110     0.0000128129328620950     0.0000281267034346940     0.0000503710601349909     0.0000983687290213712     0.0001803344697584730     0.0002927856959250005     0.0004289634831949729     0.0005794576282128149     0.0007309426525193965     0.0008645572406264006     0.0009577975892551403     0.0009914293494984166 
    0.0008434320474056145     0.0008136119138113965     0.0007309426525193965     0.0006126243973952748     0.0004791408335671652     0.0003481181635597087     0.0002321621420200246     0.0001396139127349029     0.0000754114047775574     0.0000409849715831542     0.0000227426059274520     0.0000097760330154253     0.0000010313157001865     -0.0000048004114219623     -0.0000086251186927001     -0.0000108542576040954     -0.0000115944468021620     -0.0000108542602700636     -0.0000086251239488314     -0.0000048004191427845     0.0000010313056612709     0.0000097760208325451     0.0000227425918777410     0.0000409849561847760     0.0000754113889178389     0.0001396138976956733     0.0002321621293434592     0.0003481181547097022     0.0004791408293624738     0.0006126243973952748     0.0007309426548555597     0.0008136119159118331     0.0008434320474056145 
    0.0006752414619287779     0.0006498283663821965     0.0005794576282128150     0.0004791408293624740     0.0003671111421344320     0.0002594147746455213     0.0001674379664885199     0.0000978732038669689     0.0000533742073779422     0.0000314017152315808     0.0000168240658289086     0.0000064734665174794     -0.0000006140554297078     -0.0000054382018841857     -0.0000086439017352693     -0.0000105160206603186     -0.0000111360169604542     -0.0000105160239633428     -0.0000086439082078112     -0.0000054382112754036     -0.0000006140673948662     0.0000064734524118574     0.0000168240501550661     0.0000314016988119613     0.0000533741913930322     0.0000978731898499366     0.0001674379561145710     0.0002594147692700196     0.0003671111421344320     0.0004791408335671654     0.0005794576339295720     0.0006498283703590612     0.0006752414619287779 
    0.0005068766237717522     0.0004861562454511446     0.0004289634831949729     0.0003481181547097021     0.0002594147692700195     0.0001768464858411025     0.0001099369714443922     0.0000632314826542649     0.0000370232138676821     0.0000223247683410739     0.0000112958598446590     0.0000034670307176251     -0.0000019839674003649     -0.0000057614200426759     -0.0000082848420854422     -0.0000097470434488506     -0.0000102267699331168     -0.0000097470471851511     -0.0000082848493458262     -0.0000057614304067478     -0.0000019839802615921     0.0000034670161181602     0.0000112958444123893     0.0000223247531768394     0.0000370232003267797     0.0000632314723028873     0.0001099369657970446     0.0001768464858411025     0.0002594147746455213     0.0003481181635597088     0.0004289634922447528     0.0004861562511411727     0.0005068766237717522 
    0.0003521589632736358     0.0003362982061094947     0.0002927856959250005     0.0002321621293434592     0.0001674379561145709     0.0001099369657970446     0.0000667078208528409     0.0000399436189442337     0.0000254928001560838     0.0000146693905900578     0.0000067565308362773     0.0000011445664277521     -0.0000028071818492603     -0.0000055564084439982     -0.0000073638285265290     -0.0000083800761760493     -0.0000087055073756217     -0.0000083800801086070     -0.0000073638360879661     -0.0000055564190237758     -0.0000028071945619770     0.0000011445526620994     0.0000067565172103349     0.0000146693783794480     0.0000254927907230250     0.0000399436136666596     0.0000667078208528409     0.0001099369714443922     0.0001674379664885200     0.0002321621420200246     0.0002927857074153578     0.0003362982129399437     0.0003521589632736358 
    0.0002212369479301703     0.0002102300974549139     0.0001803344697584730     0.0001396138976956732     0.0000978731898499365     0.0000632314723028873     0.0000399436136666595     0.0000264658766493806     0.0000163044640446744     0.0000087956436663718     0.0000034512899952816     -0.0000002946384864154     -0.0000028938815737800     -0.0000046307516112401     -0.0000056876208770169     -0.0000062247372051280     -0.0000063837305058405     -0.0000062247410805862     -0.0000056876282338041     -0.0000046307616606734     -0.0000028938931887503     -0.0000002946503396163     0.0000034512792698797     0.0000087956353718180     0.0000163044593835462     0.0000264658766493806     0.0000399436189442337     0.0000632314826542649     0.0000978732038669688     0.0001396139127349029     0.0001803344824689849     0.0002102301047377458     0.0002212369479301703 
    0.0001223954672549091     0.0001158520213372845     0.0000983687290213711     0.0000754113889178388     0.0000533741913930322     0.0000370232003267797     0.0000254927907230250     0.0000163044593835462     0.0000094686617406319     0.0000046468672067674     0.0000013711042833937     -0.0000007801877652009     -0.0000021020115672594     -0.0000027919729290413     -0.0000030347437683762     -0.0000030458623638849     -0.0000030223322543746     -0.0000030458659350973     -0.0000030347504410187     -0.0000027919817777966     -0.0000021020213036367     -0.0000007801969342302     0.0000013710970761552     0.0000046468631444144     0.0000094686617406320     0.0000163044640446744     0.0000254928001560838     0.0000370232138676821     0.0000533742073779422     0.0000754114047775574     0.0000983687418009459     0.0001158520284676665     0.0001223954672549091 
    0.0000610181590384823     0.0000580496000351248     0.0000503710601349909     0.0000409849561847760     0.0000314016988119614     0.0000223247531768394     0.0000146693783794481     0.0000087956353718180     0.0000046468631444144     0.0000019500179234615     0.0000003889137824992     -0.0000002981406629057     -0.0000003108423212419     0.0000001530427367170     0.0000008352198570960     0.0000014256847751039     0.0000016578752834072     0.0000014256817220934     0.0000008352142710568     0.0000001530356184843     -0.0000003108496249578     -0.0000002981467040786     0.0000003889102873261     0.0000019500179234614     0.0000046468672067674     0.0000087956436663718     0.0000146693905900579     0.0000223247683410739     0.0000314017152315809     0.0000409849715831542     0.0000503710720979685     0.0000580496065721910     0.0000610181590384823 
    0.0000333024234585158     0.0000319275390099419     0.0000281267034346940     0.0000227425918777410     0.0000168240501550661     0.0000112958444123893     0.0000067565172103349     0.0000034512792698797     0.0000013710970761552     0.0000003889102873261     0.0000003583520098746     0.0000011398417620207     0.0000025602894414445     0.0000043495475361776     0.0000061182594069471     0.0000074230707031193     0.0000079042896311827     0.0000074230683190984     0.0000061182551759824     0.0000043495424635510     0.0000025602848253953     0.0000011398389209787     0.0000003583520098746     0.0000003889137824992     0.0000013711042833937     0.0000034512899952816     0.0000067565308362773     0.0000112958598446591     0.0000168240658289086     0.0000227426059274520     0.0000281267140234489     0.0000319275446953800     0.0000333024234585158 
    0.0000157451795827595     0.0000149655544492504     0.0000128129328620949     0.0000097760208325450     0.0000064734524118574     0.0000034670161181602     0.0000011445526620994     -0.0000002946503396163     -0.0000007801969342302     -0.0000002981467040786     0.0000011398389209787     0.0000034650900043197     0.0000064789057900733     0.0000097924209365061     0.0000128411910548728     0.0000150030232758485     0.0000157861247965220     0.0000150030216200454     0.0000128411882591288     0.0000097924179371397     0.0000064789037415151     0.0000034650900043197     0.0000011398417620208     -0.0000002981406629057     -0.0000007801877652009     -0.0000002946384864154     0.0000011445664277520     0.0000034670307176251     0.0000064734665174795     0.0000097760330154253     0.0000128129418113648     0.0000149655591829190     0.0000157451795827595 
    0.0000041492334312025     0.0000037362081875909     0.0000026031326244110     0.0000010313056612709     -0.0000006140673948662     -0.0000019839802615921     -0.0000028071945619770     -0.0000028938931887503     -0.0000021020213036367     -0.0000003108496249578     0.0000025602848253953     0.0000064789037415150     0.0000111995775571683     0.0000161970998612790     0.0000207001653771161     0.0000238575130617382     0.0000249956278883773     0.0000238575120852840     0.0000207001638793925     0.0000161970986427131     0.0000111995775571683     0.0000064789057900733     0.0000025602894414445     -0.0000003108423212419     -0.0000021020115672594     -0.0000028938815737800     -0.0000028071818492603     -0.0000019839674003649     -0.0000006140554297078     0.0000010313157001865     0.0000026031398505214     0.0000037362119645259     0.0000041492334312025 
    -0.0000033367306004169     -0.0000035414067215220     -0.0000040888461451811     -0.0000048004191427845     -0.0000054382112754036     -0.0000057614304067478     -0.0000055564190237758     -0.0000046307616606734     -0.0000027919817777966     0.0000001530356184842     0.0000043495424635510     0.0000097924179371396     0.0000161970986427131     0.0000229085919416122     0.0000289346156615466     0.0000331571576103298     0.0000346795044478172     0.0000331571571645965     0.0000289346151309075     0.0000229085919416123     0.0000161970998612790     0.0000097924209365061     0.0000043495475361776     0.0000001530427367170     -0.0000027919729290413     -0.0000046307516112401     -0.0000055564084439983     -0.0000057614200426759     -0.0000054382018841858     -0.0000048004114219623     -0.0000040888406657813     -0.0000035414038809806     -0.0000033367306004169 
    -0.0000081144070595388     -0.0000082027333137507     -0.0000084177801603893     -0.0000086251239488314     -0.0000086439082078111     -0.0000082848493458262     -0.0000073638360879661     -0.0000056876282338041     -0.0000030347504410187     0.0000008352142710568     0.0000061182551759824     0.0000128411882591287     0.0000207001638793924     0.0000289346151309075     0.0000363477312451750     0.0000415578705915511     0.0000434397635108812     0.0000415578704688332     0.0000363477312451750     0.0000289346156615466     0.0000207001653771161     0.0000128411910548728     0.0000061182594069471     0.0000008352198570960     -0.0000030347437683762     -0.0000056876208770169     -0.0000073638285265289     -0.0000082848420854422     -0.0000086439017352692     -0.0000086251186927001     -0.0000084177764610114     -0.0000082027314048619     -0.0000081144070595388 
    -0.0000108644303177937     -0.0000108909970423197     -0.0000109268281217471     -0.0000108542602700636     -0.0000105160239633427     -0.0000097470471851511     -0.0000083800801086069     -0.0000062247410805862     -0.0000030458659350973     0.0000014256817220934     0.0000074230683190984     0.0000150030216200454     0.0000238575120852840     0.0000331571571645965     0.0000415578704688332     0.0000474800402402758     0.0000496228354024272     0.0000474800402402758     0.0000415578705915511     0.0000331571576103299     0.0000238575130617382     0.0000150030232758485     0.0000074230707031193     0.0000014256847751039     -0.0000030458623638849     -0.0000062247372051280     -0.0000083800761760493     -0.0000097470434488506     -0.0000105160206603186     -0.0000108542576040954     -0.0000109268262526396     -0.0000108909960798033     -0.0000108644303177937 
    -0.0000117755281541642     -0.0000117821431604926     -0.0000117595855798419     -0.0000115944468021620     -0.0000111360169604542     -0.0000102267699331168     -0.0000087055073756217     -0.0000063837305058405     -0.0000030223322543746     0.0000016578752834072     0.0000079042896311826     0.0000157861247965220     0.0000249956278883773     0.0000346795044478172     0.0000434397635108812     0.0000496228354024272     0.0000518615494909899     0.0000496228354024272     0.0000434397635108812     0.0000346795044478172     0.0000249956278883773     0.0000157861247965220     0.0000079042896311827     0.0000016578752834072     -0.0000030223322543746     -0.0000063837305058405     -0.0000087055073756217     -0.0000102267699331168     -0.0000111360169604542     -0.0000115944468021620     -0.0000117595855798419     -0.0000117821431604926     -0.0000117755281541642 
    -0.0000108644303177937     -0.0000108909960798034     -0.0000109268262526396     -0.0000108542576040954     -0.0000105160206603187     -0.0000097470434488506     -0.0000083800761760493     -0.0000062247372051280     -0.0000030458623638849     0.0000014256847751039     0.0000074230707031193     0.0000150030232758485     0.0000238575130617382     0.0000331571576103299     0.0000415578705915512     0.0000474800402402758     0.0000496228354024272     0.0000474800402402759     0.0000415578704688332     0.0000331571571645965     0.0000238575120852841     0.0000150030216200454     0.0000074230683190985     0.0000014256817220934     -0.0000030458659350973     -0.0000062247410805862     -0.0000083800801086069     -0.0000097470471851511     -0.0000105160239633427     -0.0000108542602700637     -0.0000109268281217471     -0.0000108909970423197     -0.0000108644303177937 
    -0.0000081144070595389     -0.0000082027314048619     -0.0000084177764610114     -0.0000086251186927001     -0.0000086439017352692     -0.0000082848420854422     -0.0000073638285265290     -0.0000056876208770169     -0.0000030347437683762     0.0000008352198570960     0.0000061182594069471     0.0000128411910548728     0.0000207001653771161     0.0000289346156615466     0.0000363477312451750     0.0000415578704688332     0.0000434397635108812     0.0000415578705915511     0.0000363477312451750     0.0000289346151309075     0.0000207001638793925     0.0000128411882591288     0.0000061182551759824     0.0000008352142710568     -0.0000030347504410187     -0.0000056876282338041     -0.0000073638360879661     -0.0000082848493458262     -0.0000086439082078111     -0.0000086251239488314     -0.0000084177801603893     -0.0000082027333137507     -0.0000081144070595389 
    -0.0000033367306004170     -0.0000035414038809807     -0.0000040888406657813     -0.0000048004114219623     -0.0000054382018841858     -0.0000057614200426759     -0.0000055564084439983     -0.0000046307516112402     -0.0000027919729290413     0.0000001530427367170     0.0000043495475361776     0.0000097924209365061     0.0000161970998612790     0.0000229085919416123     0.0000289346151309075     0.0000331571571645965     0.0000346795044478172     0.0000331571576103299     0.0000289346156615466     0.0000229085919416123     0.0000161970986427131     0.0000097924179371396     0.0000043495424635510     0.0000001530356184843     -0.0000027919817777966     -0.0000046307616606734     -0.0000055564190237758     -0.0000057614304067478     -0.0000054382112754036     -0.0000048004191427845     -0.0000040888461451811     -0.0000035414067215220     -0.0000033367306004170 
    0.0000041492334312025     0.0000037362119645259     0.0000026031398505214     0.0000010313157001865     -0.0000006140554297078     -0.0000019839674003649     -0.0000028071818492603     -0.0000028938815737800     -0.0000021020115672594     -0.0000003108423212420     0.0000025602894414445     0.0000064789057900733     0.0000111995775571683     0.0000161970986427131     0.0000207001638793925     0.0000238575120852840     0.0000249956278883773     0.0000238575130617382     0.0000207001653771161     0.0000161970998612790     0.0000111995775571684     0.0000064789037415151     0.0000025602848253954     -0.0000003108496249578     -0.0000021020213036366     -0.0000028938931887503     -0.0000028071945619770     -0.0000019839802615921     -0.0000006140673948662     0.0000010313056612709     0.0000026031326244110     0.0000037362081875909     0.0000041492334312025 
    0.0000157451795827595     0.0000149655591829189     0.0000128129418113648     0.0000097760330154253     0.0000064734665174794     0.0000034670307176251     0.0000011445664277520     -0.0000002946384864154     -0.0000007801877652009     -0.0000002981406629057     0.0000011398417620208     0.0000034650900043197     0.0000064789037415151     0.0000097924179371397     0.0000128411882591288     0.0000150030216200454     0.0000157861247965220     0.0000150030232758485     0.0000128411910548728     0.0000097924209365061     0.0000064789057900733     0.0000034650900043197     0.0000011398389209788     -0.0000002981467040786     -0.0000007801969342301     -0.0000002946503396163     0.0000011445526620994     0.0000034670161181602     0.0000064734524118574     0.0000097760208325450     0.0000128129328620949     0.0000149655544492504     0.0000157451795827595 
    0.0000333024234585158     0.0000319275446953800     0.0000281267140234489     0.0000227426059274520     0.0000168240658289086     0.0000112958598446590     0.0000067565308362773     0.0000034512899952816     0.0000013711042833937     0.0000003889137824992     0.0000003583520098746     0.0000011398389209787     0.0000025602848253953     0.0000043495424635510     0.0000061182551759824     0.0000074230683190984     0.0000079042896311827     0.0000074230707031193     0.0000061182594069471     0.0000043495475361776     0.0000025602894414445     0.0000011398417620208     0.0000003583520098746     0.0000003889102873261     0.0000013710970761552     0.0000034512792698797     0.0000067565172103349     0.0000112958444123893     0.0000168240501550661     0.0000227425918777410     0.0000281267034346940     0.0000319275390099419     0.0000333024234585158 
    0.0000610181590384824     0.0000580496065721910     0.0000503710720979685     0.0000409849715831542     0.0000314017152315808     0.0000223247683410739     0.0000146693905900579     0.0000087956436663718     0.0000046468672067674     0.0000019500179234614     0.0000003889102873261     -0.0000002981467040786     -0.0000003108496249578     0.0000001530356184843     0.0000008352142710568     0.0000014256817220934     0.0000016578752834072     0.0000014256847751039     0.0000008352198570960     0.0000001530427367170     -0.0000003108423212419     -0.0000002981406629057     0.0000003889137824992     0.0000019500179234614     0.0000046468631444144     0.0000087956353718180     0.0000146693783794481     0.0000223247531768394     0.0000314016988119613     0.0000409849561847760     0.0000503710601349909     0.0000580496000351248     0.0000610181590384824 
    0.0001223954672549092     0.0001158520284676665     0.0000983687418009459     0.0000754114047775575     0.0000533742073779422     0.0000370232138676821     0.0000254928001560838     0.0000163044640446744     0.0000094686617406319     0.0000046468631444144     0.0000013710970761552     -0.0000007801969342302     -0.0000021020213036367     -0.0000027919817777967     -0.0000030347504410187     -0.0000030458659350973     -0.0000030223322543746     -0.0000030458623638849     -0.0000030347437683762     -0.0000027919729290413     -0.0000021020115672594     -0.0000007801877652009     0.0000013711042833937     0.0000046468672067675     0.0000094686617406320     0.0000163044593835462     0.0000254927907230250     0.0000370232003267797     0.0000533741913930322     0.0000754113889178389     0.0000983687290213712     0.0001158520213372845     0.0001223954672549092 
    0.0002212369479301703     0.0002102301047377458     0.0001803344824689849     0.0001396139127349029     0.0000978732038669688     0.0000632314826542649     0.0000399436189442337     0.0000264658766493805     0.0000163044593835461     0.0000087956353718179     0.0000034512792698796     -0.0000002946503396163     -0.0000028938931887504     -0.0000046307616606735     -0.0000056876282338041     -0.0000062247410805862     -0.0000063837305058405     -0.0000062247372051280     -0.0000056876208770169     -0.0000046307516112401     -0.0000028938815737799     -0.0000002946384864154     0.0000034512899952816     0.0000087956436663719     0.0000163044640446744     0.0000264658766493806     0.0000399436136666596     0.0000632314723028873     0.0000978731898499366     0.0001396138976956732     0.0001803344697584730     0.0002102300974549139     0.0002212369479301703 
    0.0003521589632736356     0.0003362982129399437     0.0002927857074153578     0.0002321621420200245     0.0001674379664885199     0.0001099369714443921     0.0000667078208528409     0.0000399436136666595     0.0000254927907230249     0.0000146693783794480     0.0000067565172103349     0.0000011445526620994     -0.0000028071945619770     -0.0000055564190237759     -0.0000073638360879661     -0.0000083800801086070     -0.0000087055073756217     -0.0000083800761760493     -0.0000073638285265289     -0.0000055564084439982     -0.0000028071818492602     0.0000011445664277521     0.0000067565308362773     0.0000146693905900579     0.0000254928001560838     0.0000399436189442338     0.0000667078208528409     0.0001099369657970446     0.0001674379561145710     0.0002321621293434592     0.0002927856959250004     0.0003362982061094947     0.0003521589632736356 
    0.0005068766237717522     0.0004861562511411727     0.0004289634922447528     0.0003481181635597088     0.0002594147746455212     0.0001768464858411025     0.0001099369657970445     0.0000632314723028873     0.0000370232003267797     0.0000223247531768394     0.0000112958444123892     0.0000034670161181602     -0.0000019839802615921     -0.0000057614304067478     -0.0000082848493458262     -0.0000097470471851511     -0.0000102267699331168     -0.0000097470434488506     -0.0000082848420854422     -0.0000057614200426759     -0.0000019839674003649     0.0000034670307176251     0.0000112958598446591     0.0000223247683410739     0.0000370232138676821     0.0000632314826542649     0.0001099369714443922     0.0001768464858411025     0.0002594147692700196     0.0003481181547097022     0.0004289634831949729     0.0004861562454511446     0.0005068766237717522 
    0.0006752414619287778     0.0006498283703590612     0.0005794576339295720     0.0004791408335671654     0.0003671111421344320     0.0002594147692700195     0.0001674379561145709     0.0000978731898499365     0.0000533741913930322     0.0000314016988119613     0.0000168240501550661     0.0000064734524118574     -0.0000006140673948663     -0.0000054382112754037     -0.0000086439082078112     -0.0000105160239633428     -0.0000111360169604542     -0.0000105160206603187     -0.0000086439017352693     -0.0000054382018841857     -0.0000006140554297078     0.0000064734665174794     0.0000168240658289086     0.0000314017152315809     0.0000533742073779423     0.0000978732038669689     0.0001674379664885200     0.0002594147746455213     0.0003671111421344320     0.0004791408293624740     0.0005794576282128150     0.0006498283663821964     0.0006752414619287778 
    0.0008434320474056143     0.0008136119159118331     0.0007309426548555597     0.0006126243973952748     0.0004791408293624738     0.0003481181547097021     0.0002321621293434591     0.0001396138976956732     0.0000754113889178388     0.0000409849561847760     0.0000227425918777410     0.0000097760208325450     0.0000010313056612709     -0.0000048004191427845     -0.0000086251239488315     -0.0000108542602700637     -0.0000115944468021620     -0.0000108542576040954     -0.0000086251186927001     -0.0000048004114219622     0.0000010313157001865     0.0000097760330154253     0.0000227426059274520     0.0000409849715831542     0.0000754114047775575     0.0001396139127349030     0.0002321621420200246     0.0003481181635597087     0.0004791408335671653     0.0006126243973952748     0.0007309426525193963     0.0008136119138113965     0.0008434320474056143 
    0.0009914293494984166     0.0009577975892551403     0.0008645572406264006     0.0007309426525193965     0.0005794576282128149     0.0004289634831949729     0.0002927856959250004     0.0001803344697584730     0.0000983687290213711     0.0000503710601349909     0.0000281267034346940     0.0000128129328620949     0.0000026031326244110     -0.0000040888461451811     -0.0000084177801603893     -0.0000109268281217470     -0.0000117595855798419     -0.0000109268262526395     -0.0000084177764610114     -0.0000040888406657813     0.0000026031398505214     0.0000128129418113649     0.0000281267140234489     0.0000503710720979686     0.0000983687418009460     0.0001803344824689850     0.0002927857074153579     0.0004289634922447528     0.0005794576339295722     0.0007309426548555598     0.0008645572406264006     0.0009577975886087596     0.0009914293494984166 
    0.0010947037577383281     0.0010584049473893833     0.0009577975886087597     0.0008136119138113965     0.0006498283663821966     0.0004861562454511446     0.0003362982061094947     0.0002102300974549139     0.0001158520213372845     0.0000580496000351247     0.0000319275390099419     0.0000149655544492503     0.0000037362081875909     -0.0000035414067215220     -0.0000082027333137507     -0.0000108909970423197     -0.0000117821431604926     -0.0000108909960798034     -0.0000082027314048619     -0.0000035414038809806     0.0000037362119645259     0.0000149655591829189     0.0000319275446953800     0.0000580496065721910     0.0001158520284676665     0.0002102301047377459     0.0003362982129399436     0.0004861562511411727     0.0006498283703590612     0.0008136119159118331     0.0009577975892551400     0.0010584049473893833     0.0010947037577383281 
    0.0011319698379147023     0.0010947037577383279     0.0009914293494984164     0.0008434320474056145     0.0006752414619287777     0.0005068766237717523     0.0003521589632736358     0.0002212369479301703     0.0001223954672549092     0.0000610181590384823     0.0000333024234585158     0.0000157451795827595     0.0000041492334312025     -0.0000033367306004169     -0.0000081144070595388     -0.0000108644303177936     -0.0000117755281541641     -0.0000108644303177937     -0.0000081144070595389     -0.0000033367306004169     0.0000041492334312025     0.0000157451795827595     0.0000333024234585158     0.0000610181590384823     0.0001223954672549092     0.0002212369479301703     0.0003521589632736358     0.0005068766237717523     0.0006752414619287777     0.0008434320474056145     0.0009914293494984162     0.0010947037577383279     0.0011319698379147023 
    0.0008905897021257320     0.0008580449056879053     0.0007677619393881992     0.0006385565383216114     0.0004932996688616132     0.0003521527406613077     0.0002295628233029813     0.0001343925401875541     0.0000707840187479181     0.0000383941957382105     0.0000204321754998508     0.0000078633098828278     -0.0000005803660189513     -0.0000062194945666309     -0.0000099217865187897     -0.0000120767832965329     -0.0000127910861452061     -0.0000120767832965329     -0.0000099217865187897     -0.0000062194945666310     -0.0000005803660189513     0.0000078633098828278     0.0000204321754998508     0.0000383941957382105     0.0000707840187479181     0.0001343925401875541     0.0002295628233029814     0.0003521527406613077     0.0004932996688616133     0.0006385565383216114     0.0007677619393881992     0.0008580449056879053     0.0008905897021257320 
    0.0008580449056879053     0.0008264421198034984     0.0007387923092206516     0.0006134325620820063     0.0004726885455729823     0.0003362762483329483     0.0002183059375126611     0.0001273232871734811     0.0000671358970890447     0.0000369024194737420     0.0000195419385633526     0.0000073840114225205     -0.0000008058772371296     -0.0000062933645751087     -0.0000099037236433647     -0.0000120061624930853     -0.0000127028422651253     -0.0000120061635116688     -0.0000099037256699141     -0.0000062933675890456     -0.0000008058812073560     0.0000073840065439860     0.0000195419328624461     0.0000369024131108622     0.0000671358903312300     0.0001273232804053553     0.0002183059312319028     0.0003362762431112426     0.0004726885419084724     0.0006134325601332713     0.0007387923086169199     0.0008264421198034984     0.0008580449056879053 
    0.0007677619393881993     0.0007387923086169200     0.0006585088072262427     0.0005439236509506865     0.0004158443282605415     0.0002927247841710951     0.0001876919593042345     0.0001083597943218353     0.0000575801627939369     0.0000327833639385681     0.0000170961994061008     0.0000060842389837480     -0.0000013924852181716     -0.0000064481583396307     -0.0000097926932094816     -0.0000117415077097903     -0.0000123864471456413     -0.0000117415097100113     -0.0000097926971802463     -0.0000064481642170655     -0.0000013924928978442     0.0000060842296575744     0.0000170961886716297     0.0000327833521749607     0.0000575801505757495     0.0001083597824316212     0.0001876919486972863     0.0002927247758568629     0.0004158443229995348     0.0005439236487897987     0.0006585088072262427     0.0007387923092206518     0.0007677619393881993 
    0.0006385565383216114     0.0006134325601332713     0.0005439236487897987     0.0004451385724093181     0.0003356696167828004     0.0002320591216342665     0.0001458680884776590     0.0000832300775505199     0.0000455719806432558     0.0000269609513746157     0.0000136789543115446     0.0000043218411952652     -0.0000021087450020042     -0.0000065138587818559     -0.0000094459746191670     -0.0000111517326801905     -0.0000117141904491270     -0.0000111517355739162     -0.0000094459803402528     -0.0000065138671803110     -0.0000021087558267257     0.0000043218283047447     0.0000136789398446860     0.0000269609360022464     0.0000455719652735117     0.0000832300633285797     0.0001458680766912609     0.0002320591134781820     0.0003356696129158989     0.0004451385724093181     0.0005439236509506866     0.0006134325620820063     0.0006385565383216114 
    0.0004932996688616134     0.0004726885419084727     0.0004158443229995348     0.0003356696129158989     0.0002481132623557334     0.0001673103309631984     0.0001027536861779511     0.0000586859976254152     0.0000348141255166952     0.0000205770597565355     0.0000100121524919900     0.0000025379767113245     -0.0000026715170385664     -0.0000062853060553808     -0.0000086944879525658     -0.0000100842724620279     -0.0000105385754442064     -0.0000100842760958249     -0.0000086944950918823     -0.0000062853164100875     -0.0000026715301295868     0.0000025379615433187     0.0000100121360664949     0.0000205770430655821     0.0000348141097564958     0.0000586859841711040     0.0001027536764235548     0.0001673103259761186     0.0002481132623557334     0.0003356696167828005     0.0004158443282605415     0.0004726885455729823     0.0004932996688616134 
    0.0003521527406613078     0.0003362762431112427     0.0002927247758568628     0.0002320591134781819     0.0001673103259761186     0.0001098122189040772     0.0000666078406754070     0.0000398719168621963     0.0000254375430597742     0.0000146277078083812     0.0000067251161806872     0.0000011202707717867     -0.0000028267396567298     -0.0000055728693598955     -0.0000073783347404688     -0.0000083934952453304     -0.0000087185769216624     -0.0000083934994023086     -0.0000073783428372958     -0.0000055728809167640     -0.0000028267539066167     0.0000011202548365490     0.0000067250997226056     0.0000146276920919382     0.0000254375294415347     0.0000398719067390893     0.0000666078352804914     0.0001098122189040772     0.0001673103309631985     0.0002320591216342665     0.0002927247841710951     0.0003362762483329484     0.0003521527406613078 
    0.0002295628233029813     0.0002183059312319028     0.0001876919486972863     0.0001458680766912609     0.0001027536764235548     0.0000666078352804914     0.0000418544738233002     0.0000277817252383558     0.0000174577034912125     0.0000097472351588523     0.0000042238449290274     0.0000003381246665619     -0.0000023694406285979     -0.0000041938480048655     -0.0000053200137176052     -0.0000059030885479900     -0.0000060782855214214     -0.0000059030929689925     -0.0000053200222328900     -0.0000041938599160070     -0.0000023694548644714     0.0000003381094436528     0.0000042238301573535     0.0000097472222542227     0.0000174576937976644     0.0000277817199625821     0.0000418544738233002     0.0000666078406754070     0.0001027536861779512     0.0001458680884776590     0.0001876919593042346     0.0002183059375126611     0.0002295628233029813 
    0.0001343925401875541     0.0001273232804053553     0.0001083597824316212     0.0000832300633285798     0.0000586859841711041     0.0000398719067390893     0.0000277817199625821     0.0000183786087881977     0.0000112690313208354     0.0000061859960471974     0.0000026924821384392     0.0000003650140537978     -0.0000011040129527111     -0.0000019181920988157     -0.0000022578515211611     -0.0000023304608303670     -0.0000023278824439978     -0.0000023304652437734     -0.0000022578599027011     -0.0000019182035317496     -0.0000011040260955496     0.0000003650007866666     0.0000026924703330376     0.0000061859871131893     0.0000112690264228367     0.0000183786087881976     0.0000277817252383558     0.0000398719168621963     0.0000586859976254153     0.0000832300775505199     0.0001083597943218353     0.0001273232871734811     0.0001343925401875541 
    0.0000707840187479181     0.0000671358903312300     0.0000575801505757494     0.0000455719652735117     0.0000348141097564958     0.0000254375294415347     0.0000174576937976644     0.0000112690264228367     0.0000068443054185076     0.0000039219693977256     0.0000021792932487268     0.0000013419436304576     0.0000012045530949873     0.0000015734802302247     0.0000021954030938537     0.0000027567829499749     0.0000029810811735770     0.0000027567788030513     0.0000021953953595901     0.0000015734700147159     0.0000012045419348833     0.0000013419332349443     0.0000021792851977088     0.0000039219649419069     0.0000068443054185076     0.0000112690313208354     0.0000174577034912125     0.0000254375430597742     0.0000348141255166952     0.0000455719806432558     0.0000575801627939369     0.0000671358970890447     0.0000707840187479181 
    0.0000383941957382105     0.0000369024131108622     0.0000327833521749607     0.0000269609360022464     0.0000205770430655821     0.0000146276920919382     0.0000097472222542227     0.0000061859871131893     0.0000039219649419069     0.0000028095239820857     0.0000026885797502306     0.0000034175408506932     0.0000048315258846662     0.0000066653865485440     0.0000085143559447894     0.0000098964208303868     0.0000104095179868408     0.0000098964171793022     0.0000085143492991050     0.0000066653781502703     0.0000048315173621892     0.0000034175338943849     0.0000026885757855395     0.0000028095239820857     0.0000039219693977256     0.0000061859960471974     0.0000097472351588523     0.0000146277078083812     0.0000205770597565355     0.0000269609513746157     0.0000327833639385681     0.0000369024194737420     0.0000383941957382105 
    0.0000204321754998508     0.0000195419328624461     0.0000170961886716297     0.0000136789398446860     0.0000100121360664949     0.0000067250997226056     0.0000042238301573535     0.0000026924703330376     0.0000021792851977088     0.0000026885757855395     0.0000042182125992383     0.0000067216108226008     0.0000100152531834218     0.0000136922155606482     0.0000171206394179448     0.0000195751275243269     0.0000204686795015178     0.0000195751245539426     0.0000171206341976334     0.0000136922093917646     0.0000100152476655032     0.0000067216074875280     0.0000042182125992382     0.0000026885797502306     0.0000021792932487268     0.0000026924821384391     0.0000042238449290274     0.0000067251161806872     0.0000100121524919901     0.0000136789543115446     0.0000170961994061008     0.0000195419385633526     0.0000204321754998508 
    0.0000078633098828278     0.0000073840065439860     0.0000060842296575743     0.0000043218283047447     0.0000025379615433187     0.0000011202548365490     0.0000003381094436528     0.0000003650007866666     0.0000013419332349443     0.0000034175338943849     0.0000067216074875281     0.0000112657315368468     0.0000168059398985782     0.0000227424570997421     0.0000281463573731748     0.0000319627619330136     0.0000333435633650134     0.0000319627597609652     0.0000281463537613911     0.0000227424533096892     0.0000168059373748021     0.0000112657315368468     0.0000067216108226008     0.0000034175408506932     0.0000013419436304576     0.0000003650140537978     0.0000003381246665618     0.0000011202707717867     0.0000025379767113245     0.0000043218411952652     0.0000060842389837480     0.0000073840114225205     0.0000078633098828278 
    -0.0000005803660189514     -0.0000008058812073560     -0.0000013924928978442     -0.0000021087558267258     -0.0000026715301295868     -0.0000028267539066167     -0.0000023694548644714     -0.0000011040260955496     0.0000012045419348833     0.0000048315173621892     0.0000100152476655032     0.0000168059373748021     0.0000248825613778405     0.0000334240958049237     0.0000411473787986614     0.0000465850093857272     0.0000485501486537684     0.0000465850080288015     0.0000411473767606670     0.0000334240941965185     0.0000248825613778405     0.0000168059398985782     0.0000100152531834218     0.0000048315258846662     0.0000012045530949873     -0.0000011040129527111     -0.0000023694406285979     -0.0000028267396567298     -0.0000026715170385664     -0.0000021087450020042     -0.0000013924852181716     -0.0000008058772371297     -0.0000005803660189514 
    -0.0000062194945666310     -0.0000062933675890457     -0.0000064481642170655     -0.0000065138671803110     -0.0000062853164100875     -0.0000055728809167640     -0.0000041938599160070     -0.0000019182035317496     0.0000015734700147159     0.0000066653781502703     0.0000136922093917646     0.0000227424533096892     0.0000334240941965185     0.0000446916903866688     0.0000549545047852495     0.0000630232475394289     0.0000661675269334789     0.0000630232468837498     0.0000549545040248083     0.0000446916903866687     0.0000334240958049236     0.0000227424570997421     0.0000136922155606482     0.0000066653865485439     0.0000015734802302246     -0.0000019181920988157     -0.0000041938480048655     -0.0000055728693598955     -0.0000062853060553808     -0.0000065138587818559     -0.0000064481583396307     -0.0000062933645751088     -0.0000062194945666310 
    -0.0000099217865187898     -0.0000099037256699142     -0.0000097926971802463     -0.0000094459803402529     -0.0000086944950918824     -0.0000073783428372958     -0.0000053200222328901     -0.0000022578599027011     0.0000021953953595901     0.0000085143492991050     0.0000171206341976334     0.0000281463537613911     0.0000411473767606670     0.0000549545040248083     0.0000695147706588136     0.0000812745455675885     0.0000857857794022131     0.0000812745453781708     0.0000695147706588136     0.0000549545047852495     0.0000411473787986614     0.0000281463573731748     0.0000171206394179448     0.0000085143559447894     0.0000021954030938537     -0.0000022578515211611     -0.0000053200137176052     -0.0000073783347404688     -0.0000086944879525658     -0.0000094459746191671     -0.0000097926932094817     -0.0000099037236433647     -0.0000099217865187898 
    -0.0000120767832965329     -0.0000120061635116688     -0.0000117415097100113     -0.0000111517355739162     -0.0000100842760958248     -0.0000083934994023085     -0.0000059030929689925     -0.0000023304652437734     0.0000027567788030513     0.0000098964171793022     0.0000195751245539426     0.0000319627597609652     0.0000465850080288015     0.0000630232468837498     0.0000812745453781708     0.0000957580462263625     0.0001012727724255035     0.0000957580462263625     0.0000812745455675885     0.0000630232475394289     0.0000465850093857272     0.0000319627619330136     0.0000195751275243269     0.0000098964208303868     0.0000027567829499749     -0.0000023304608303670     -0.0000059030885479900     -0.0000083934952453305     -0.0000100842724620280     -0.0000111517326801906     -0.0000117415077097903     -0.0000120061624930853     -0.0000120767832965329 
    -0.0000127910861452061     -0.0000127028422651253     -0.0000123864471456414     -0.0000117141904491270     -0.0000105385754442063     -0.0000087185769216624     -0.0000060782855214214     -0.0000023278824439978     0.0000029810811735769     0.0000104095179868408     0.0000204686795015178     0.0000333435633650134     0.0000485501486537684     0.0000661675269334789     0.0000857857794022131     0.0001012727724255035     0.0001071564246347757     0.0001012727724255035     0.0000857857794022131     0.0000661675269334789     0.0000485501486537684     0.0000333435633650134     0.0000204686795015178     0.0000104095179868408     0.0000029810811735769     -0.0000023278824439978     -0.0000060782855214214     -0.0000087185769216624     -0.0000105385754442063     -0.0000117141904491270     -0.0000123864471456413     -0.0000127028422651253     -0.0000127910861452061 
    -0.0000120767832965329     -0.0000120061624930853     -0.0000117415077097903     -0.0000111517326801906     -0.0000100842724620280     -0.0000083934952453305     -0.0000059030885479900     -0.0000023304608303670     0.0000027567829499748     0.0000098964208303868     0.0000195751275243269     0.0000319627619330136     0.0000465850093857272     0.0000630232475394289     0.0000812745455675885     0.0000957580462263625     0.0001012727724255035     0.0000957580462263625     0.0000812745453781708     0.0000630232468837498     0.0000465850080288015     0.0000319627597609652     0.0000195751245539426     0.0000098964171793022     0.0000027567788030512     -0.0000023304652437735     -0.0000059030929689925     -0.0000083934994023085     -0.0000100842760958249     -0.0000111517355739163     -0.0000117415097100113     -0.0000120061635116689     -0.0000120767832965329 
    -0.0000099217865187897     -0.0000099037236433647     -0.0000097926932094817     -0.0000094459746191670     -0.0000086944879525659     -0.0000073783347404688     -0.0000053200137176052     -0.0000022578515211611     0.0000021954030938537     0.0000085143559447894     0.0000171206394179448     0.0000281463573731748     0.0000411473787986614     0.0000549545047852495     0.0000695147706588136     0.0000812745453781708     0.0000857857794022131     0.0000812745455675886     0.0000695147706588136     0.0000549545040248083     0.0000411473767606670     0.0000281463537613910     0.0000171206341976334     0.0000085143492991050     0.0000021953953595900     -0.0000022578599027011     -0.0000053200222328901     -0.0000073783428372958     -0.0000086944950918824     -0.0000094459803402529     -0.0000097926971802463     -0.0000099037256699142     -0.0000099217865187897 
    -0.0000062194945666310     -0.0000062933645751088     -0.0000064481583396307     -0.0000065138587818559     -0.0000062853060553808     -0.0000055728693598955     -0.0000041938480048655     -0.0000019181920988157     0.0000015734802302246     0.0000066653865485439     0.0000136922155606482     0.0000227424570997421     0.0000334240958049236     0.0000446916903866687     0.0000549545040248083     0.0000630232468837498     0.0000661675269334789     0.0000630232475394289     0.0000549545047852495     0.0000446916903866688     0.0000334240941965185     0.0000227424533096892     0.0000136922093917646     0.0000066653781502703     0.0000015734700147159     -0.0000019182035317496     -0.0000041938599160070     -0.0000055728809167640     -0.0000062853164100875     -0.0000065138671803110     -0.0000064481642170655     -0.0000062933675890456     -0.0000062194945666310 
    -0.0000005803660189513     -0.0000008058772371297     -0.0000013924852181716     -0.0000021087450020042     -0.0000026715170385664     -0.0000028267396567298     -0.0000023694406285979     -0.0000011040129527111     0.0000012045530949873     0.0000048315258846662     0.0000100152531834218     0.0000168059398985782     0.0000248825613778405     0.0000334240941965185     0.0000411473767606670     0.0000465850080288015     0.0000485501486537684     0.0000465850093857272     0.0000411473787986614     0.0000334240958049236     0.0000248825613778405     0.0000168059373748021     0.0000100152476655032     0.0000048315173621892     0.0000012045419348833     -0.0000011040260955496     -0.0000023694548644714     -0.0000028267539066167     -0.0000026715301295868     -0.0000021087558267258     -0.0000013924928978442     -0.0000008058812073560     -0.0000005803660189513 
    0.0000078633098828277     0.0000073840114225205     0.0000060842389837479     0.0000043218411952651     0.0000025379767113245     0.0000011202707717867     0.0000003381246665618     0.0000003650140537978     0.0000013419436304575     0.0000034175408506931     0.0000067216108226008     0.0000112657315368468     0.0000168059373748021     0.0000227424533096892     0.0000281463537613911     0.0000319627597609652     0.0000333435633650134     0.0000319627619330136     0.0000281463573731748     0.0000227424570997421     0.0000168059398985782     0.0000112657315368468     0.0000067216074875281     0.0000034175338943849     0.0000013419332349443     0.0000003650007866666     0.0000003381094436528     0.0000011202548365490     0.0000025379615433187     0.0000043218283047447     0.0000060842296575743     0.0000073840065439860     0.0000078633098828277 
    0.0000204321754998508     0.0000195419385633526     0.0000170961994061007     0.0000136789543115446     0.0000100121524919900     0.0000067251161806872     0.0000042238449290274     0.0000026924821384391     0.0000021792932487268     0.0000026885797502306     0.0000042182125992383     0.0000067216074875280     0.0000100152476655032     0.0000136922093917646     0.0000171206341976334     0.0000195751245539426     0.0000204686795015178     0.0000195751275243269     0.0000171206394179448     0.0000136922155606482     0.0000100152531834218     0.0000067216108226008     0.0000042182125992383     0.0000026885757855395     0.0000021792851977088     0.0000026924703330376     0.0000042238301573535     0.0000067250997226056     0.0000100121360664949     0.0000136789398446860     0.0000170961886716297     0.0000195419328624461     0.0000204321754998508 
    0.0000383941957382105     0.0000369024194737420     0.0000327833639385681     0.0000269609513746157     0.0000205770597565355     0.0000146277078083811     0.0000097472351588523     0.0000061859960471974     0.0000039219693977256     0.0000028095239820857     0.0000026885757855395     0.0000034175338943849     0.0000048315173621892     0.0000066653781502703     0.0000085143492991050     0.0000098964171793022     0.0000104095179868408     0.0000098964208303868     0.0000085143559447894     0.0000066653865485440     0.0000048315258846662     0.0000034175408506932     0.0000026885797502306     0.0000028095239820857     0.0000039219649419069     0.0000061859871131893     0.0000097472222542227     0.0000146276920919382     0.0000205770430655821     0.0000269609360022464     0.0000327833521749607     0.0000369024131108622     0.0000383941957382105 
    0.0000707840187479181     0.0000671358970890447     0.0000575801627939369     0.0000455719806432558     0.0000348141255166952     0.0000254375430597742     0.0000174577034912125     0.0000112690313208354     0.0000068443054185076     0.0000039219649419069     0.0000021792851977088     0.0000013419332349442     0.0000012045419348833     0.0000015734700147159     0.0000021953953595900     0.0000027567788030512     0.0000029810811735769     0.0000027567829499749     0.0000021954030938537     0.0000015734802302247     0.0000012045530949873     0.0000013419436304576     0.0000021792932487268     0.0000039219693977256     0.0000068443054185076     0.0000112690264228367     0.0000174576937976644     0.0000254375294415347     0.0000348141097564958     0.0000455719652735117     0.0000575801505757494     0.0000671358903312300     0.0000707840187479181 
    0.0001343925401875540     0.0001273232871734811     0.0001083597943218353     0.0000832300775505199     0.0000586859976254152     0.0000398719168621963     0.0000277817252383557     0.0000183786087881976     0.0000112690264228366     0.0000061859871131893     0.0000026924703330376     0.0000003650007866665     -0.0000011040260955497     -0.0000019182035317496     -0.0000022578599027011     -0.0000023304652437735     -0.0000023278824439978     -0.0000023304608303670     -0.0000022578515211611     -0.0000019181920988157     -0.0000011040129527110     0.0000003650140537979     0.0000026924821384392     0.0000061859960471974     0.0000112690313208354     0.0000183786087881977     0.0000277817199625821     0.0000398719067390893     0.0000586859841711040     0.0000832300633285797     0.0001083597824316211     0.0001273232804053553     0.0001343925401875540 
    0.0002295628233029813     0.0002183059375126611     0.0001876919593042345     0.0001458680884776590     0.0001027536861779511     0.0000666078406754069     0.0000418544738233002     0.0000277817199625821     0.0000174576937976644     0.0000097472222542226     0.0000042238301573535     0.0000003381094436528     -0.0000023694548644714     -0.0000041938599160071     -0.0000053200222328901     -0.0000059030929689925     -0.0000060782855214214     -0.0000059030885479900     -0.0000053200137176051     -0.0000041938480048655     -0.0000023694406285979     0.0000003381246665619     0.0000042238449290274     0.0000097472351588523     0.0000174577034912125     0.0000277817252383558     0.0000418544738233002     0.0000666078352804914     0.0001027536764235548     0.0001458680766912609     0.0001876919486972863     0.0002183059312319027     0.0002295628233029813 
    0.0003521527406613078     0.0003362762483329484     0.0002927247841710951     0.0002320591216342665     0.0001673103309631984     0.0001098122189040772     0.0000666078352804914     0.0000398719067390892     0.0000254375294415346     0.0000146276920919381     0.0000067250997226056     0.0000011202548365489     -0.0000028267539066167     -0.0000055728809167640     -0.0000073783428372958     -0.0000083934994023086     -0.0000087185769216624     -0.0000083934952453304     -0.0000073783347404688     -0.0000055728693598955     -0.0000028267396567298     0.0000011202707717867     0.0000067251161806872     0.0000146277078083812     0.0000254375430597742     0.0000398719168621963     0.0000666078406754070     0.0001098122189040772     0.0001673103259761186     0.0002320591134781820     0.0002927247758568629     0.0003362762431112427     0.0003521527406613078 
    0.0004932996688616134     0.0004726885455729824     0.0004158443282605415     0.0003356696167828004     0.0002481132623557334     0.0001673103259761186     0.0001027536764235548     0.0000586859841711040     0.0000348141097564958     0.0000205770430655821     0.0000100121360664948     0.0000025379615433187     -0.0000026715301295868     -0.0000062853164100875     -0.0000086944950918824     -0.0000100842760958249     -0.0000105385754442064     -0.0000100842724620280     -0.0000086944879525658     -0.0000062853060553808     -0.0000026715170385663     0.0000025379767113246     0.0000100121524919901     0.0000205770597565356     0.0000348141255166952     0.0000586859976254153     0.0001027536861779512     0.0001673103309631985     0.0002481132623557334     0.0003356696129158989     0.0004158443229995348     0.0004726885419084726     0.0004932996688616134 
    0.0006385565383216114     0.0006134325620820063     0.0005439236509506866     0.0004451385724093181     0.0003356696129158988     0.0002320591134781820     0.0001458680766912609     0.0000832300633285797     0.0000455719652735116     0.0000269609360022464     0.0000136789398446860     0.0000043218283047447     -0.0000021087558267258     -0.0000065138671803111     -0.0000094459803402529     -0.0000111517355739162     -0.0000117141904491270     -0.0000111517326801905     -0.0000094459746191670     -0.0000065138587818559     -0.0000021087450020042     0.0000043218411952652     0.0000136789543115446     0.0000269609513746158     0.0000455719806432558     0.0000832300775505199     0.0001458680884776590     0.0002320591216342666     0.0003356696167828004     0.0004451385724093181     0.0005439236487897987     0.0006134325601332712     0.0006385565383216114 
    0.0007677619393881993     0.0007387923092206516     0.0006585088072262427     0.0005439236487897987     0.0004158443229995348     0.0002927247758568629     0.0001876919486972862     0.0001083597824316211     0.0000575801505757494     0.0000327833521749606     0.0000170961886716297     0.0000060842296575743     -0.0000013924928978442     -0.0000064481642170656     -0.0000097926971802463     -0.0000117415097100112     -0.0000123864471456413     -0.0000117415077097903     -0.0000097926932094816     -0.0000064481583396307     -0.0000013924852181716     0.0000060842389837480     0.0000170961994061008     0.0000327833639385681     0.0000575801627939369     0.0001083597943218353     0.0001876919593042346     0.0002927247841710952     0.0004158443282605415     0.0005439236509506866     0.0006585088072262427     0.0007387923086169200     0.0007677619393881993 
    0.0008580449056879055     0.0008264421198034985     0.0007387923086169199     0.0006134325601332712     0.0004726885419084724     0.0003362762431112426     0.0002183059312319027     0.0001273232804053553     0.0000671358903312300     0.0000369024131108622     0.0000195419328624460     0.0000073840065439860     -0.0000008058812073560     -0.0000062933675890457     -0.0000099037256699141     -0.0000120061635116688     -0.0000127028422651253     -0.0000120061624930852     -0.0000099037236433647     -0.0000062933645751087     -0.0000008058772371296     0.0000073840114225205     0.0000195419385633526     0.0000369024194737420     0.0000671358970890448     0.0001273232871734812     0.0002183059375126612     0.0003362762483329484     0.0004726885455729824     0.0006134325620820063     0.0007387923092206516     0.0008264421198034985     0.0008580449056879055 
    0.0008905897021257320     0.0008580449056879053     0.0007677619393881992     0.0006385565383216114     0.0004932996688616132     0.0003521527406613077     0.0002295628233029813     0.0001343925401875541     0.0000707840187479181     0.0000383941957382105     0.0000204321754998508     0.0000078633098828278     -0.0000005803660189513     -0.0000062194945666309     -0.0000099217865187897     -0.0000120767832965329     -0.0000127910861452061     -0.0000120767832965329     -0.0000099217865187897     -0.0000062194945666310     -0.0000005803660189513     0.0000078633098828278     0.0000204321754998508     0.0000383941957382105     0.0000707840187479181     0.0001343925401875541     0.0002295628233029814     0.0003521527406613077     0.0004932996688616133     0.0006385565383216114     0.0007677619393881992     0.0008580449056879053     0.0008905897021257320 
    0.0006492422958343358     0.0006225052832051358     0.0005485845940111790     0.0004438213659621100     0.0003286007848804071     0.0002212566390259016     0.0001344073139231623     0.0000740464351077858     0.0000404165209604520     0.0000229800723864817     0.0000103794180725084     0.0000016195530751018     -0.0000044084279393665     -0.0000085597633777981     -0.0000113253554034814     -0.0000129273040110217     -0.0000134531738795454     -0.0000129273040110217     -0.0000113253554034814     -0.0000085597633777981     -0.0000044084279393664     0.0000016195530751018     0.0000103794180725085     0.0000229800723864818     0.0000404165209604521     0.0000740464351077859     0.0001344073139231624     0.0002212566390259017     0.0003286007848804072     0.0004438213659621102     0.0005485845940111791     0.0006225052832051358     0.0006492422958343358 
    0.0006225052832051355     0.0005966652060172045     0.0005252607100298334     0.0004241799368920033     0.0003132383820019196     0.0002102303332461473     0.0001273317094269369     0.0000701994711469373     0.0000388553918634162     0.0000220477182609566     0.0000098678540098815     0.0000013881167516014     -0.0000044602782539037     -0.0000084944625765551     -0.0000111817542481202     -0.0000127360690151138     -0.0000132455998643703     -0.0000127360700606183     -0.0000111817563320710     -0.0000084944656691639     -0.0000044602822847395     0.0000013881119007532     0.0000098678485043978     0.0000220477123162980     0.0000388553857504209     0.0000701994651934130     0.0001273317040198730     0.0002102303288153879     0.0003132383789177809     0.0004241799352578478     0.0005252607095240895     0.0005966652060172046     0.0006225052832051355 
    0.0005485845940111791     0.0005252607095240894     0.0004609135515119550     0.0003701553959352960     0.0002711924087412224     0.0001802868732512467     0.0001083526619671420     0.0000600913388100552     0.0000346776652592643     0.0000194911208205647     0.0000084898144053743     0.0000007995264217873     -0.0000045375418870659     -0.0000082340363058413     -0.0000106934995471510     -0.0000121086892664542     -0.0000125704752643029     -0.0000121086913375355     -0.0000106935036654420     -0.0000082340423885848     -0.0000045375497542616     0.0000007995170583733     0.0000084898039312747     0.0000194911097133939     0.0000346776540932467     0.0000600913282534519     0.0001083526527648383     0.0001802868661555631     0.0002711924042967877     0.0003701553941195772     0.0004609135515119550     0.0005252607100298336     0.0005485845940111791 
    0.0004438213659621102     0.0004241799352578477     0.0003701553941195772     0.0002944722004490439     0.0002129394332735133     0.0001395153181809285     0.0000832063739002248     0.0000472951573210008     0.0000287709937789961     0.0000159315042905397     0.0000066458924209053     0.0000001193329188536     -0.0000044476919988781     -0.0000076225092906574     -0.0000097231951065389     -0.0000109175604100139     -0.0000113034728858211     -0.0000109175634420172     -0.0000097232011094547     -0.0000076225180845093     -0.0000044477032259672     0.0000001193197993829     0.0000066458780929703     0.0000159314895469648     0.0000287709795125150     0.0000472951445091059     0.0000832063635446075     0.0001395153111502747     0.0002129394299836386     0.0002944722004490439     0.0003701553959352962     0.0004241799368920033     0.0004438213659621102 
    0.0003286007848804072     0.0003132383789177809     0.0002711924042967876     0.0002129394299836385     0.0001514050567995277     0.0000977451158353799     0.0000586521001617410     0.0000357586860073899     0.0000222863444862627     0.0000121291281884755     0.0000048163379610220     -0.0000003437266442173     -0.0000039731581712294     -0.0000064856612954656     -0.0000081167956992689     -0.0000090184835208468     -0.0000093035950235258     -0.0000090184873782820     -0.0000081168032859007     -0.0000064856722764285     -0.0000039731719347729     -0.0000003437423198552     0.0000048163214093625     0.0000121291118762635     0.0000222863295713260     0.0000357586736567548     0.0000586520914429394     0.0000977451114734132     0.0001514050567995277     0.0002129394332735134     0.0002711924087412225     0.0003132383820019197     0.0003286007848804072 
    0.0002212566390259016     0.0002102303288153880     0.0001802868661555631     0.0001395153111502746     0.0000977451114734132     0.0000631044908020818     0.0000398355070104657     0.0000263729924643463     0.0000162289605499406     0.0000087362416505933     0.0000034045096761072     -0.0000003324607483533     -0.0000029257297919151     -0.0000046588007101406     -0.0000057133979146298     -0.0000062493257693137     -0.0000064079524380667     -0.0000062493302434843     -0.0000057134066333230     -0.0000046588131264056     -0.0000029257449812812     -0.0000003324774759208     0.0000034044927886371     0.0000087362259740291     0.0000162289473774256     0.0000263729829637073     0.0000398355020848028     0.0000631044908020819     0.0000977451158353800     0.0001395153181809285     0.0001802868732512467     0.0002102303332461474     0.0002212566390259016 
    0.0001344073139231624     0.0001273317040198730     0.0001083526527648383     0.0000832063635446074     0.0000586520914429394     0.0000398355020848028     0.0000277456469830467     0.0000183463069215187     0.0000112421235221060     0.0000061643005911843     0.0000026749178699558     0.0000003502859985672     -0.0000011170475322017     -0.0000019303832896919     -0.0000022697329939508     -0.0000023422870757078     -0.0000023397137456833     -0.0000023422919093929     -0.0000022697422994482     -0.0000019303962665901     -0.0000011170629226005     0.0000003502697674288     0.0000026749024353442     0.0000061642874461669     0.0000112421139246143     0.0000183463018468180     0.0000277456469830467     0.0000398355070104657     0.0000586521001617410     0.0000832063739002248     0.0001083526619671421     0.0001273317094269370     0.0001344073139231624 
    0.0000740464351077858     0.0000701994651934130     0.0000600913282534519     0.0000472951445091059     0.0000357586736567548     0.0000263729829637073     0.0000183463018468179     0.0000120863738868499     0.0000075851210861401     0.0000045938202034836     0.0000027926935465240     0.0000019043312960651     0.0000017206475092358     0.0000020491821773410     0.0000026403034972631     0.0000031831036357795     0.0000034013246181808     0.0000031830987151348     0.0000026402941709487     0.0000020491695144428     0.0000017206330761856     0.0000019043169191615     0.0000027926809852669     0.0000045938109097453     0.0000075851161191503     0.0000120863738868499     0.0000183463069215187     0.0000263729924643463     0.0000357586860073900     0.0000472951573210008     0.0000600913388100553     0.0000701994711469373     0.0000740464351077858 
    0.0000404165209604520     0.0000388553857504209     0.0000346776540932467     0.0000287709795125150     0.0000222863295713260     0.0000162289473774256     0.0000112421139246142     0.0000075851161191503     0.0000052422133308964     0.0000040686262099549     0.0000039005045540574     0.0000045924663842872     0.0000059800771920459     0.0000078016469971832     0.0000096524717460145     0.0000110431040961937     0.0000115607514882979     0.0000110430993536723     0.0000096524629372294     0.0000078016354460477     0.0000059800647059834     0.0000045924549168267     0.0000039004958269292     0.0000040686214774975     0.0000052422133308964     0.0000075851210861401     0.0000112421235221061     0.0000162289605499406     0.0000222863444862627     0.0000287709937789961     0.0000346776652592643     0.0000388553918634162     0.0000404165209604520 
    0.0000229800723864818     0.0000220477123162980     0.0000194911097133939     0.0000159314895469648     0.0000121291118762635     0.0000087362259740291     0.0000061642874461669     0.0000045938109097453     0.0000040686214774975     0.0000045910973463168     0.0000061602143326444     0.0000087332131392812     0.0000121300041261412     0.0000159385830354755     0.0000195051166818037     0.0000220671631492557     0.0000230015875428935     0.0000220671588339962     0.0000195051088821292     0.0000159385732864885     0.0000121299943719927     0.0000087332053085304     0.0000061602099506836     0.0000045910973463168     0.0000040686262099550     0.0000045938202034836     0.0000061643005911844     0.0000087362416505933     0.0000121291281884755     0.0000159315042905397     0.0000194911208205648     0.0000220477182609567     0.0000229800723864818 
    0.0000103794180725085     0.0000098678485043978     0.0000084898039312747     0.0000066458780929703     0.0000048163214093625     0.0000034044927886370     0.0000026749024353442     0.0000027926809852669     0.0000039004958269291     0.0000061602099506836     0.0000097197031034226     0.0000146031868738534     0.0000205615083485592     0.0000269594812655262     0.0000327977357140892     0.0000369293932825385     0.0000384259843075818     0.0000369293896249186     0.0000327977293542343     0.0000269594738689375     0.0000205615018586161     0.0000146031830319624     0.0000097197031034227     0.0000061602143326444     0.0000039005045540575     0.0000027926935465240     0.0000026749178699558     0.0000034045096761073     0.0000048163379610221     0.0000066458924209053     0.0000084898144053743     0.0000098678540098815     0.0000103794180725085 
    0.0000016195530751018     0.0000013881119007532     0.0000007995170583733     0.0000001193197993829     -0.0000003437423198552     -0.0000003324774759209     0.0000003502697674288     0.0000019043169191615     0.0000045924549168267     0.0000087332053085304     0.0000146031830319624     0.0000222630985795042     0.0000313555866023875     0.0000409643635058101     0.0000503798157752505     0.0000580828749426088     0.0000610611959707737     0.0000580828721386681     0.0000503798111804232     0.0000409643587874568     0.0000313555835397903     0.0000222630985795042     0.0000146031868738534     0.0000087332131392812     0.0000045924663842871     0.0000019043312960651     0.0000003502859985672     -0.0000003324607483532     -0.0000003437266442173     0.0000001193329188536     0.0000007995264217873     0.0000013881167516014     0.0000016195530751018 
    -0.0000044084279393665     -0.0000044602822847395     -0.0000045375497542616     -0.0000044477032259672     -0.0000039731719347729     -0.0000029257449812812     -0.0000011170629226005     0.0000017206330761856     0.0000059800647059834     0.0000121299943719927     0.0000205615018586162     0.0000313555835397903     0.0000440807571910452     0.0000603190833358226     0.0000780828016794906     0.0000919587960434744     0.0000972096591174765     0.0000919587942039501     0.0000780827989662450     0.0000603190812517428     0.0000440807571910451     0.0000313555866023875     0.0000205615083485592     0.0000121300041261411     0.0000059800771920459     0.0000017206475092358     -0.0000011170475322017     -0.0000029257297919150     -0.0000039731581712294     -0.0000044476919988781     -0.0000045375418870659     -0.0000044602782539036     -0.0000044084279393665 
    -0.0000085597633777981     -0.0000084944656691639     -0.0000082340423885848     -0.0000076225180845093     -0.0000064856722764285     -0.0000046588131264056     -0.0000019303962665901     0.0000020491695144428     0.0000078016354460477     0.0000159385732864885     0.0000269594738689375     0.0000409643587874568     0.0000603190812517428     0.0000865606944724557     0.0001138799952740300     0.0001346491670198492     0.0001424139510702007     0.0001346491660903379     0.0001138799942178952     0.0000865606944724557     0.0000603190833358226     0.0000409643635058101     0.0000269594812655262     0.0000159385830354755     0.0000078016469971832     0.0000020491821773410     -0.0000019303832896919     -0.0000046588007101406     -0.0000064856612954655     -0.0000076225092906574     -0.0000082340363058413     -0.0000084944625765551     -0.0000085597633777981 
    -0.0000113253554034814     -0.0000111817563320710     -0.0000106935036654420     -0.0000097232011094547     -0.0000081168032859007     -0.0000057134066333231     -0.0000022697422994483     0.0000026402941709487     0.0000096524629372294     0.0000195051088821291     0.0000327977293542343     0.0000503798111804233     0.0000780827989662450     0.0001138799942178952     0.0001501214189931499     0.0001772501382430633     0.0001873221925778547     0.0001772501379649139     0.0001501214189931498     0.0001138799952740300     0.0000780828016794906     0.0000503798157752505     0.0000327977357140892     0.0000195051166818037     0.0000096524717460145     0.0000026403034972631     -0.0000022697329939508     -0.0000057133979146298     -0.0000081167956992689     -0.0000097231951065389     -0.0000106934995471509     -0.0000111817542481203     -0.0000113253554034814 
    -0.0000129273040110217     -0.0000127360700606183     -0.0000121086913375355     -0.0000109175634420172     -0.0000090184873782821     -0.0000062493302434843     -0.0000023422919093929     0.0000031830987151348     0.0000110430993536723     0.0000220671588339961     0.0000369293896249186     0.0000580828721386681     0.0000919587942039501     0.0001346491660903379     0.0001772501379649139     0.0002088828650287190     0.0002205844139373698     0.0002088828650287190     0.0001772501382430632     0.0001346491670198492     0.0000919587960434744     0.0000580828749426088     0.0000369293932825385     0.0000220671631492556     0.0000110431040961937     0.0000031831036357795     -0.0000023422870757078     -0.0000062493257693137     -0.0000090184835208469     -0.0000109175604100139     -0.0000121086892664542     -0.0000127360690151138     -0.0000129273040110217 
    -0.0000134531738795454     -0.0000132455998643704     -0.0000125704752643029     -0.0000113034728858211     -0.0000093035950235258     -0.0000064079524380667     -0.0000023397137456833     0.0000034013246181808     0.0000115607514882979     0.0000230015875428935     0.0000384259843075818     0.0000610611959707737     0.0000972096591174764     0.0001424139510702007     0.0001873221925778547     0.0002205844139373698     0.0002328747686011735     0.0002205844139373698     0.0001873221925778546     0.0001424139510702007     0.0000972096591174764     0.0000610611959707736     0.0000384259843075817     0.0000230015875428935     0.0000115607514882979     0.0000034013246181808     -0.0000023397137456833     -0.0000064079524380667     -0.0000093035950235258     -0.0000113034728858211     -0.0000125704752643029     -0.0000132455998643704     -0.0000134531738795454 
    -0.0000129273040110217     -0.0000127360690151139     -0.0000121086892664542     -0.0000109175604100139     -0.0000090184835208469     -0.0000062493257693137     -0.0000023422870757078     0.0000031831036357795     0.0000110431040961937     0.0000220671631492556     0.0000369293932825385     0.0000580828749426089     0.0000919587960434744     0.0001346491670198492     0.0001772501382430633     0.0002088828650287190     0.0002205844139373698     0.0002088828650287190     0.0001772501379649138     0.0001346491660903379     0.0000919587942039501     0.0000580828721386681     0.0000369293896249185     0.0000220671588339961     0.0000110430993536723     0.0000031830987151348     -0.0000023422919093929     -0.0000062493302434843     -0.0000090184873782821     -0.0000109175634420172     -0.0000121086913375355     -0.0000127360700606183     -0.0000129273040110217 
    -0.0000113253554034815     -0.0000111817542481203     -0.0000106934995471509     -0.0000097231951065389     -0.0000081167956992689     -0.0000057133979146298     -0.0000022697329939508     0.0000026403034972631     0.0000096524717460145     0.0000195051166818037     0.0000327977357140893     0.0000503798157752506     0.0000780828016794906     0.0001138799952740300     0.0001501214189931499     0.0001772501379649139     0.0001873221925778548     0.0001772501382430633     0.0001501214189931498     0.0001138799942178952     0.0000780827989662450     0.0000503798111804233     0.0000327977293542344     0.0000195051088821291     0.0000096524629372294     0.0000026402941709487     -0.0000022697422994482     -0.0000057134066333231     -0.0000081168032859007     -0.0000097232011094547     -0.0000106935036654419     -0.0000111817563320710     -0.0000113253554034815 
    -0.0000085597633777981     -0.0000084944625765551     -0.0000082340363058413     -0.0000076225092906574     -0.0000064856612954655     -0.0000046588007101406     -0.0000019303832896919     0.0000020491821773410     0.0000078016469971832     0.0000159385830354755     0.0000269594812655262     0.0000409643635058101     0.0000603190833358226     0.0000865606944724557     0.0001138799942178952     0.0001346491660903379     0.0001424139510702007     0.0001346491670198492     0.0001138799952740300     0.0000865606944724557     0.0000603190812517428     0.0000409643587874568     0.0000269594738689375     0.0000159385732864885     0.0000078016354460477     0.0000020491695144428     -0.0000019303962665901     -0.0000046588131264056     -0.0000064856722764285     -0.0000076225180845093     -0.0000082340423885848     -0.0000084944656691639     -0.0000085597633777981 
    -0.0000044084279393665     -0.0000044602782539037     -0.0000045375418870659     -0.0000044476919988781     -0.0000039731581712294     -0.0000029257297919150     -0.0000011170475322017     0.0000017206475092358     0.0000059800771920459     0.0000121300041261411     0.0000205615083485592     0.0000313555866023875     0.0000440807571910451     0.0000603190812517428     0.0000780827989662450     0.0000919587942039501     0.0000972096591174764     0.0000919587960434744     0.0000780828016794906     0.0000603190833358226     0.0000440807571910451     0.0000313555835397903     0.0000205615018586161     0.0000121299943719927     0.0000059800647059834     0.0000017206330761856     -0.0000011170629226005     -0.0000029257449812812     -0.0000039731719347729     -0.0000044477032259672     -0.0000045375497542616     -0.0000044602822847395     -0.0000044084279393665 
    0.0000016195530751018     0.0000013881167516014     0.0000007995264217873     0.0000001193329188536     -0.0000003437266442173     -0.0000003324607483533     0.0000003502859985672     0.0000019043312960651     0.0000045924663842871     0.0000087332131392812     0.0000146031868738534     0.0000222630985795042     0.0000313555835397903     0.0000409643587874568     0.0000503798111804232     0.0000580828721386681     0.0000610611959707736     0.0000580828749426088     0.0000503798157752505     0.0000409643635058101     0.0000313555866023875     0.0000222630985795042     0.0000146031830319624     0.0000087332053085304     0.0000045924549168267     0.0000019043169191616     0.0000003502697674288     -0.0000003324774759208     -0.0000003437423198552     0.0000001193197993829     0.0000007995170583733     0.0000013881119007533     0.0000016195530751018 
    0.0000103794180725085     0.0000098678540098815     0.0000084898144053743     0.0000066458924209053     0.0000048163379610221     0.0000034045096761072     0.0000026749178699558     0.0000027926935465240     0.0000039005045540574     0.0000061602143326443     0.0000097197031034226     0.0000146031830319623     0.0000205615018586161     0.0000269594738689375     0.0000327977293542343     0.0000369293896249186     0.0000384259843075818     0.0000369293932825385     0.0000327977357140893     0.0000269594812655263     0.0000205615083485592     0.0000146031868738534     0.0000097197031034227     0.0000061602099506837     0.0000039004958269292     0.0000027926809852670     0.0000026749024353443     0.0000034044927886371     0.0000048163214093625     0.0000066458780929704     0.0000084898039312747     0.0000098678485043978     0.0000103794180725085 
    0.0000229800723864818     0.0000220477182609566     0.0000194911208205647     0.0000159315042905397     0.0000121291281884755     0.0000087362416505933     0.0000061643005911843     0.0000045938202034836     0.0000040686262099549     0.0000045910973463168     0.0000061602099506836     0.0000087332053085304     0.0000121299943719927     0.0000159385732864885     0.0000195051088821291     0.0000220671588339961     0.0000230015875428935     0.0000220671631492557     0.0000195051166818037     0.0000159385830354755     0.0000121300041261412     0.0000087332131392812     0.0000061602143326444     0.0000045910973463168     0.0000040686214774975     0.0000045938109097453     0.0000061642874461669     0.0000087362259740291     0.0000121291118762635     0.0000159314895469647     0.0000194911097133939     0.0000220477123162980     0.0000229800723864818 
    0.0000404165209604520     0.0000388553918634163     0.0000346776652592643     0.0000287709937789961     0.0000222863444862627     0.0000162289605499406     0.0000112421235221060     0.0000075851210861401     0.0000052422133308964     0.0000040686214774975     0.0000039004958269291     0.0000045924549168267     0.0000059800647059834     0.0000078016354460477     0.0000096524629372294     0.0000110430993536723     0.0000115607514882979     0.0000110431040961937     0.0000096524717460145     0.0000078016469971832     0.0000059800771920459     0.0000045924663842872     0.0000039005045540575     0.0000040686262099550     0.0000052422133308964     0.0000075851161191503     0.0000112421139246143     0.0000162289473774256     0.0000222863295713260     0.0000287709795125150     0.0000346776540932467     0.0000388553857504209     0.0000404165209604520 
    0.0000740464351077858     0.0000701994711469373     0.0000600913388100553     0.0000472951573210008     0.0000357586860073900     0.0000263729924643463     0.0000183463069215187     0.0000120863738868499     0.0000075851161191503     0.0000045938109097453     0.0000027926809852669     0.0000019043169191615     0.0000017206330761856     0.0000020491695144428     0.0000026402941709487     0.0000031830987151348     0.0000034013246181808     0.0000031831036357795     0.0000026403034972631     0.0000020491821773411     0.0000017206475092359     0.0000019043312960651     0.0000027926935465241     0.0000045938202034836     0.0000075851210861401     0.0000120863738868499     0.0000183463018468180     0.0000263729829637073     0.0000357586736567548     0.0000472951445091059     0.0000600913282534519     0.0000701994651934130     0.0000740464351077858 
    0.0001344073139231624     0.0001273317094269369     0.0001083526619671420     0.0000832063739002248     0.0000586521001617410     0.0000398355070104657     0.0000277456469830466     0.0000183463018468179     0.0000112421139246142     0.0000061642874461669     0.0000026749024353442     0.0000003502697674288     -0.0000011170629226005     -0.0000019303962665901     -0.0000022697422994482     -0.0000023422919093928     -0.0000023397137456833     -0.0000023422870757078     -0.0000022697329939508     -0.0000019303832896919     -0.0000011170475322017     0.0000003502859985672     0.0000026749178699558     0.0000061643005911843     0.0000112421235221060     0.0000183463069215187     0.0000277456469830466     0.0000398355020848028     0.0000586520914429393     0.0000832063635446074     0.0001083526527648382     0.0001273317040198730     0.0001344073139231624 
    0.0002212566390259016     0.0002102303332461474     0.0001802868732512467     0.0001395153181809285     0.0000977451158353799     0.0000631044908020818     0.0000398355020848028     0.0000263729829637073     0.0000162289473774256     0.0000087362259740291     0.0000034044927886370     -0.0000003324774759209     -0.0000029257449812812     -0.0000046588131264057     -0.0000057134066333231     -0.0000062493302434843     -0.0000064079524380667     -0.0000062493257693137     -0.0000057133979146298     -0.0000046588007101406     -0.0000029257297919150     -0.0000003324607483532     0.0000034045096761073     0.0000087362416505933     0.0000162289605499406     0.0000263729924643463     0.0000398355070104657     0.0000631044908020818     0.0000977451114734132     0.0001395153111502746     0.0001802868661555631     0.0002102303288153879     0.0002212566390259016 
    0.0003286007848804072     0.0003132383820019197     0.0002711924087412225     0.0002129394332735134     0.0001514050567995277     0.0000977451114734132     0.0000586520914429393     0.0000357586736567547     0.0000222863295713260     0.0000121291118762635     0.0000048163214093625     -0.0000003437423198552     -0.0000039731719347729     -0.0000064856722764285     -0.0000081168032859007     -0.0000090184873782820     -0.0000093035950235258     -0.0000090184835208468     -0.0000081167956992689     -0.0000064856612954655     -0.0000039731581712294     -0.0000003437266442173     0.0000048163379610221     0.0000121291281884755     0.0000222863444862627     0.0000357586860073900     0.0000586521001617410     0.0000977451158353800     0.0001514050567995278     0.0002129394299836386     0.0002711924042967877     0.0003132383789177809     0.0003286007848804072 
    0.0004438213659621102     0.0004241799368920033     0.0003701553959352962     0.0002944722004490439     0.0002129394299836386     0.0001395153111502746     0.0000832063635446074     0.0000472951445091059     0.0000287709795125150     0.0000159314895469647     0.0000066458780929703     0.0000001193197993828     -0.0000044477032259672     -0.0000076225180845093     -0.0000097232011094547     -0.0000109175634420172     -0.0000113034728858211     -0.0000109175604100139     -0.0000097231951065389     -0.0000076225092906574     -0.0000044476919988781     0.0000001193329188536     0.0000066458924209053     0.0000159315042905397     0.0000287709937789961     0.0000472951573210008     0.0000832063739002248     0.0001395153181809285     0.0002129394332735134     0.0002944722004490439     0.0003701553941195772     0.0004241799352578477     0.0004438213659621102 
    0.0005485845940111791     0.0005252607100298336     0.0004609135515119550     0.0003701553941195772     0.0002711924042967876     0.0001802868661555631     0.0001083526527648382     0.0000600913282534518     0.0000346776540932467     0.0000194911097133938     0.0000084898039312747     0.0000007995170583733     -0.0000045375497542617     -0.0000082340423885848     -0.0000106935036654420     -0.0000121086913375355     -0.0000125704752643029     -0.0000121086892664542     -0.0000106934995471510     -0.0000082340363058414     -0.0000045375418870659     0.0000007995264217873     0.0000084898144053743     0.0000194911208205648     0.0000346776652592644     0.0000600913388100553     0.0001083526619671421     0.0001802868732512468     0.0002711924087412226     0.0003701553959352962     0.0004609135515119551     0.0005252607095240895     0.0005485845940111791 
    0.0006225052832051355     0.0005966652060172046     0.0005252607095240894     0.0004241799352578477     0.0003132383789177807     0.0002102303288153879     0.0001273317040198730     0.0000701994651934129     0.0000388553857504209     0.0000220477123162979     0.0000098678485043978     0.0000013881119007532     -0.0000044602822847395     -0.0000084944656691639     -0.0000111817563320710     -0.0000127360700606183     -0.0000132455998643703     -0.0000127360690151138     -0.0000111817542481203     -0.0000084944625765551     -0.0000044602782539037     0.0000013881167516014     0.0000098678540098816     0.0000220477182609567     0.0000388553918634163     0.0000701994711469374     0.0001273317094269370     0.0002102303332461475     0.0003132383820019197     0.0004241799368920033     0.0005252607100298334     0.0005966652060172046     0.0006225052832051355 
    0.0006492422958343358     0.0006225052832051358     0.0005485845940111790     0.0004438213659621100     0.0003286007848804071     0.0002212566390259016     0.0001344073139231623     0.0000740464351077858     0.0000404165209604520     0.0000229800723864817     0.0000103794180725084     0.0000016195530751018     -0.0000044084279393665     -0.0000085597633777981     -0.0000113253554034814     -0.0000129273040110217     -0.0000134531738795454     -0.0000129273040110217     -0.0000113253554034814     -0.0000085597633777981     -0.0000044084279393664     0.0000016195530751018     0.0000103794180725085     0.0000229800723864818     0.0000404165209604521     0.0000740464351077859     0.0001344073139231624     0.0002212566390259017     0.0003286007848804072     0.0004438213659621102     0.0005485845940111791     0.0006225052832051358     0.0006492422958343358 
    0.0004214957134624434     0.0004018078430846919     0.0003477968213302269     0.0002726247742117799     0.0001926986203286915     0.0001224367447194248     0.0000708109125695933     0.0000404284697211685     0.0000237192619657783     0.0000115497158662940     0.0000029591798677910     -0.0000030550721021250     -0.0000072957621130508     -0.0000102631618443151     -0.0000122229122499647     -0.0000133279752350486     -0.0000136824657384552     -0.0000133279752350486     -0.0000122229122499647     -0.0000102631618443151     -0.0000072957621130508     -0.0000030550721021250     0.0000029591798677910     0.0000115497158662941     0.0000237192619657784     0.0000404284697211686     0.0000708109125695933     0.0001224367447194249     0.0001926986203286916     0.0002726247742117799     0.0003477968213302269     0.0004018078430846919     0.0004214957134624434 
    0.0004018078430846918     0.0003828993639333147     0.0003310659660511132     0.0002590447290805396     0.0001826888759596220     0.0001158775936628223     0.0000671562043696870     0.0000388654582001681     0.0000227807210166615     0.0000110326611111807     0.0000027353575316586     -0.0000030786072530139     -0.0000071792546209081     -0.0000100446684967290     -0.0000119306347968792     -0.0000129894224754035     -0.0000133279752350486     -0.0000129894235285957     -0.0000119306368937650     -0.0000100446715929236     -0.0000071792586095147     -0.0000030786119589587     0.0000027353523340743     0.0000110326556761022     0.0000227807156135070     0.0000388654531101994     0.0000671561998889182     0.0001158775900909272     0.0001826888735284563     0.0002590447278135330     0.0003310659656632697     0.0003828993639333148     0.0004018078430846918 
    0.0003477968213302269     0.0003310659656632697     0.0002853120025442583     0.0002220714692015031     0.0001556336452426043     0.0000983558320095850     0.0000575841869616339     0.0000346828405776706     0.0000202080258149083     0.0000096435842633166     0.0000021751717408818     -0.0000030676946986207     -0.0000067652245524050     -0.0000093349398328950     -0.0000110063546490011     -0.0000119306347968792     -0.0000122229122499647     -0.0000119306368937650     -0.0000110063588135482     -0.0000093349459539939     -0.0000067652323815358     -0.0000030677038428522     0.0000021751617753358     0.0000096435740183994     0.0000202080158503652     0.0000346828314605235     0.0000575841792567984     0.0000983558262319276     0.0001556336417070077     0.0002220714677824510     0.0002853120025442583     0.0003310659660511131     0.0003477968213302269 
    0.0002726247742117800     0.0002590447278135330     0.0002220714677824509     0.0001714624004541429     0.0001191888514390892     0.0000753572734495793     0.0000455576480899477     0.0000287700592349858     0.0000166280026813318     0.0000077947076173248     0.0000015545459864538     -0.0000028258488506708     -0.0000059007253657577     -0.0000080048564780229     -0.0000093349398328950     -0.0000100446684967290     -0.0000102631618443151     -0.0000100446715929236     -0.0000093349459539939     -0.0000080048654015625     -0.0000059007366392345     -0.0000028258617949125     0.0000015545321913898     0.0000077946938343914     0.0000166279897618331     0.0000287700479965901     0.0000455576392791942     0.0000753572676330362     0.0001191888487823684     0.0001714624004541430     0.0002220714692015031     0.0002590447290805397     0.0002726247742117800 
    0.0001926986203286915     0.0001826888735284562     0.0001556336417070076     0.0001191888487823683     0.0000825881449097611     0.0000532933736607370     0.0000347846765322877     0.0000222800474549975     0.0000128059952605232     0.0000059747933775899     0.0000011862314838037     -0.0000021382507649034     -0.0000044163731339877     -0.0000059007253657577     -0.0000067652245524050     -0.0000071792546209081     -0.0000072957621130508     -0.0000071792586095147     -0.0000067652323815358     -0.0000059007366392345     -0.0000044163871211952     -0.0000021382664363990     0.0000011862153073798     0.0000059747778691190     0.0000128059815026044     0.0000222800364064388     0.0000347846689606906     0.0000532933699762102     0.0000825881449097612     0.0001191888514390893     0.0001556336452426044     0.0001826888759596220     0.0001926986203286915 
    0.0001224367447194249     0.0001158775900909272     0.0000983558262319276     0.0000753572676330361     0.0000532933699762102     0.0000369311920597724     0.0000253989834256206     0.0000162193453277103     0.0000093967166502809     0.0000045879968245766     0.0000013228353384057     -0.0000008210028028249     -0.0000021382507649034     -0.0000028258488506708     -0.0000030676946986207     -0.0000030786072530140     -0.0000030550721021251     -0.0000030786119589587     -0.0000030677038428522     -0.0000028258617949125     -0.0000021382664363990     -0.0000008210197929237     0.0000013228185442984     0.0000045879816298542     0.0000093967042406461     0.0000162193366350933     0.0000253989790457043     0.0000369311920597724     0.0000532933736607370     0.0000753572734495793     0.0000983558320095850     0.0001158775936628224     0.0001224367447194249 
    0.0000708109125695933     0.0000671561998889182     0.0000575841792567983     0.0000455576392791941     0.0000347846689606906     0.0000253989790457042     0.0000174170947909256     0.0000112315300998145     0.0000068123653753382     0.0000038957554004101     0.0000021575573171555     0.0000013228353384057     0.0000011862314838037     0.0000015545459864538     0.0000021751717408818     0.0000027353575316587     0.0000029591798677910     0.0000027353523340743     0.0000021751617753358     0.0000015545321913898     0.0000011862153073798     0.0000013228185442984     0.0000021575416659344     0.0000038957423874471     0.0000068123561240155     0.0000112315253414744     0.0000174170947909256     0.0000253989834256206     0.0000347846765322878     0.0000455576480899478     0.0000575841869616339     0.0000671562043696870     0.0000708109125695933 
    0.0000404284697211685     0.0000388654531101994     0.0000346828314605235     0.0000287700479965901     0.0000222800364064388     0.0000162193366350933     0.0000112315253414744     0.0000075753821394718     0.0000052342895680140     0.0000040625908589897     0.0000038957554004101     0.0000045879968245767     0.0000059747933775899     0.0000077947076173248     0.0000096435842633166     0.0000110326611111808     0.0000115497158662940     0.0000110326556761022     0.0000096435740183993     0.0000077946938343914     0.0000059747778691189     0.0000045879816298542     0.0000038957423874471     0.0000040625814496288     0.0000052342846636415     0.0000075753821394718     0.0000112315300998145     0.0000162193453277103     0.0000222800474549976     0.0000287700592349859     0.0000346828405776706     0.0000388654582001682     0.0000404284697211685 
    0.0000237192619657783     0.0000227807156135070     0.0000202080158503652     0.0000166279897618331     0.0000128059815026044     0.0000093967042406461     0.0000068123561240155     0.0000052342846636415     0.0000047074223023829     0.0000052342895680140     0.0000068123653753382     0.0000093967166502809     0.0000128059952605232     0.0000166280026813319     0.0000202080258149083     0.0000227807210166615     0.0000237192619657784     0.0000227807156135070     0.0000202080158503652     0.0000166279897618331     0.0000128059815026044     0.0000093967042406461     0.0000068123561240155     0.0000052342846636415     0.0000047074223023829     0.0000052342895680140     0.0000068123653753382     0.0000093967166502809     0.0000128059952605232     0.0000166280026813319     0.0000202080258149083     0.0000227807210166615     0.0000237192619657783 
    0.0000115497158662940     0.0000110326556761022     0.0000096435740183993     0.0000077946938343914     0.0000059747778691189     0.0000045879816298542     0.0000038957423874471     0.0000040625814496288     0.0000052342846636415     0.0000075753821394718     0.0000112315300998145     0.0000162193453277103     0.0000222800474549975     0.0000287700592349858     0.0000346828405776706     0.0000388654582001682     0.0000404284697211685     0.0000388654531101994     0.0000346828314605235     0.0000287700479965901     0.0000222800364064388     0.0000162193366350933     0.0000112315253414744     0.0000075753821394718     0.0000052342895680140     0.0000040625908589897     0.0000038957554004101     0.0000045879968245767     0.0000059747933775899     0.0000077947076173248     0.0000096435842633165     0.0000110326611111807     0.0000115497158662940 
    0.0000029591798677910     0.0000027353523340742     0.0000021751617753358     0.0000015545321913897     0.0000011862153073798     0.0000013228185442984     0.0000021575416659344     0.0000038957423874471     0.0000068123561240155     0.0000112315253414744     0.0000174170947909255     0.0000253989834256206     0.0000347846765322877     0.0000455576480899478     0.0000575841869616340     0.0000671562043696870     0.0000708109125695933     0.0000671561998889182     0.0000575841792567983     0.0000455576392791942     0.0000347846689606906     0.0000253989790457042     0.0000174170947909256     0.0000112315300998145     0.0000068123653753382     0.0000038957554004101     0.0000021575573171555     0.0000013228353384057     0.0000011862314838037     0.0000015545459864538     0.0000021751717408818     0.0000027353575316587     0.0000029591798677910 
    -0.0000030550721021251     -0.0000030786119589588     -0.0000030677038428523     -0.0000028258617949125     -0.0000021382664363990     -0.0000008210197929237     0.0000013228185442984     0.0000045879816298542     0.0000093967042406462     0.0000162193366350933     0.0000253989790457042     0.0000369311920597724     0.0000532933736607370     0.0000753572734495793     0.0000983558320095850     0.0001158775936628224     0.0001224367447194249     0.0001158775900909272     0.0000983558262319276     0.0000753572676330362     0.0000532933699762102     0.0000369311920597724     0.0000253989834256206     0.0000162193453277103     0.0000093967166502809     0.0000045879968245767     0.0000013228353384057     -0.0000008210028028249     -0.0000021382507649034     -0.0000028258488506708     -0.0000030676946986207     -0.0000030786072530140     -0.0000030550721021251 
    -0.0000072957621130508     -0.0000071792586095147     -0.0000067652323815358     -0.0000059007366392345     -0.0000044163871211952     -0.0000021382664363990     0.0000011862153073798     0.0000059747778691189     0.0000128059815026044     0.0000222800364064388     0.0000347846689606906     0.0000532933699762102     0.0000825881449097612     0.0001191888514390893     0.0001556336452426043     0.0001826888759596220     0.0001926986203286916     0.0001826888735284562     0.0001556336417070077     0.0001191888487823684     0.0000825881449097612     0.0000532933736607370     0.0000347846765322877     0.0000222800474549975     0.0000128059952605232     0.0000059747933775899     0.0000011862314838037     -0.0000021382507649034     -0.0000044163731339877     -0.0000059007253657577     -0.0000067652245524051     -0.0000071792546209081     -0.0000072957621130508 
    -0.0000102631618443151     -0.0000100446715929236     -0.0000093349459539939     -0.0000080048654015624     -0.0000059007366392345     -0.0000028258617949125     0.0000015545321913897     0.0000077946938343914     0.0000166279897618331     0.0000287700479965901     0.0000455576392791942     0.0000753572676330362     0.0001191888487823684     0.0001714624004541430     0.0002220714692015031     0.0002590447290805397     0.0002726247742117800     0.0002590447278135330     0.0002220714677824509     0.0001714624004541430     0.0001191888514390893     0.0000753572734495793     0.0000455576480899478     0.0000287700592349859     0.0000166280026813319     0.0000077947076173248     0.0000015545459864539     -0.0000028258488506708     -0.0000059007253657577     -0.0000080048564780229     -0.0000093349398328950     -0.0000100446684967290     -0.0000102631618443151 
    -0.0000122229122499647     -0.0000119306368937651     -0.0000110063588135483     -0.0000093349459539940     -0.0000067652323815359     -0.0000030677038428523     0.0000021751617753357     0.0000096435740183993     0.0000202080158503652     0.0000346828314605235     0.0000575841792567984     0.0000983558262319276     0.0001556336417070077     0.0002220714677824510     0.0002853120025442584     0.0003310659660511131     0.0003477968213302270     0.0003310659656632697     0.0002853120025442583     0.0002220714692015031     0.0001556336452426043     0.0000983558320095850     0.0000575841869616340     0.0000346828405776706     0.0000202080258149083     0.0000096435842633166     0.0000021751717408818     -0.0000030676946986207     -0.0000067652245524050     -0.0000093349398328951     -0.0000110063546490012     -0.0000119306347968792     -0.0000122229122499647 
    -0.0000133279752350486     -0.0000129894235285957     -0.0000119306368937650     -0.0000100446715929236     -0.0000071792586095147     -0.0000030786119589588     0.0000027353523340742     0.0000110326556761022     0.0000227807156135070     0.0000388654531101994     0.0000671561998889182     0.0001158775900909272     0.0001826888735284563     0.0002590447278135330     0.0003310659656632698     0.0003828993639333148     0.0004018078430846919     0.0003828993639333147     0.0003310659660511132     0.0002590447290805396     0.0001826888759596220     0.0001158775936628224     0.0000671562043696870     0.0000388654582001681     0.0000227807210166615     0.0000110326611111808     0.0000027353575316586     -0.0000030786072530140     -0.0000071792546209081     -0.0000100446684967291     -0.0000119306347968792     -0.0000129894224754035     -0.0000133279752350486 
    -0.0000136824657384552     -0.0000133279752350486     -0.0000122229122499646     -0.0000102631618443151     -0.0000072957621130508     -0.0000030550721021250     0.0000029591798677910     0.0000115497158662940     0.0000237192619657784     0.0000404284697211685     0.0000708109125695933     0.0001224367447194249     0.0001926986203286916     0.0002726247742117799     0.0003477968213302269     0.0004018078430846918     0.0004214957134624434     0.0004018078430846918     0.0003477968213302267     0.0002726247742117799     0.0001926986203286915     0.0001224367447194248     0.0000708109125695933     0.0000404284697211685     0.0000237192619657783     0.0000115497158662940     0.0000029591798677910     -0.0000030550721021251     -0.0000072957621130508     -0.0000102631618443151     -0.0000122229122499646     -0.0000133279752350486     -0.0000136824657384552 
    -0.0000133279752350486     -0.0000129894224754035     -0.0000119306347968792     -0.0000100446684967290     -0.0000071792546209081     -0.0000030786072530139     0.0000027353575316586     0.0000110326611111808     0.0000227807210166615     0.0000388654582001682     0.0000671562043696870     0.0001158775936628224     0.0001826888759596220     0.0002590447290805396     0.0003310659660511132     0.0003828993639333147     0.0004018078430846918     0.0003828993639333148     0.0003310659656632697     0.0002590447278135330     0.0001826888735284562     0.0001158775900909272     0.0000671561998889182     0.0000388654531101994     0.0000227807156135070     0.0000110326556761022     0.0000027353523340743     -0.0000030786119589587     -0.0000071792586095147     -0.0000100446715929236     -0.0000119306368937650     -0.0000129894235285956     -0.0000133279752350486 
    -0.0000122229122499647     -0.0000119306347968792     -0.0000110063546490011     -0.0000093349398328950     -0.0000067652245524051     -0.0000030676946986207     0.0000021751717408818     0.0000096435842633166     0.0000202080258149083     0.0000346828405776706     0.0000575841869616340     0.0000983558320095850     0.0001556336452426044     0.0002220714692015031     0.0002853120025442583     0.0003310659656632697     0.0003477968213302270     0.0003310659660511131     0.0002853120025442583     0.0002220714677824509     0.0001556336417070077     0.0000983558262319276     0.0000575841792567984     0.0000346828314605235     0.0000202080158503652     0.0000096435740183994     0.0000021751617753358     -0.0000030677038428522     -0.0000067652323815358     -0.0000093349459539940     -0.0000110063588135482     -0.0000119306368937650     -0.0000122229122499647 
    -0.0000102631618443151     -0.0000100446684967290     -0.0000093349398328950     -0.0000080048564780229     -0.0000059007253657577     -0.0000028258488506708     0.0000015545459864538     0.0000077947076173248     0.0000166280026813319     0.0000287700592349859     0.0000455576480899478     0.0000753572734495793     0.0001191888514390893     0.0001714624004541430     0.0002220714677824509     0.0002590447278135330     0.0002726247742117800     0.0002590447290805397     0.0002220714692015031     0.0001714624004541430     0.0001191888487823684     0.0000753572676330362     0.0000455576392791942     0.0000287700479965902     0.0000166279897618332     0.0000077946938343915     0.0000015545321913898     -0.0000028258617949125     -0.0000059007366392345     -0.0000080048654015624     -0.0000093349459539939     -0.0000100446715929236     -0.0000102631618443151 
    -0.0000072957621130508     -0.0000071792546209081     -0.0000067652245524050     -0.0000059007253657577     -0.0000044163731339877     -0.0000021382507649034     0.0000011862314838037     0.0000059747933775899     0.0000128059952605232     0.0000222800474549975     0.0000347846765322878     0.0000532933736607370     0.0000825881449097612     0.0001191888487823684     0.0001556336417070077     0.0001826888735284562     0.0001926986203286916     0.0001826888759596220     0.0001556336452426043     0.0001191888514390892     0.0000825881449097612     0.0000532933699762102     0.0000347846689606906     0.0000222800364064388     0.0000128059815026044     0.0000059747778691189     0.0000011862153073798     -0.0000021382664363990     -0.0000044163871211952     -0.0000059007366392345     -0.0000067652323815358     -0.0000071792586095147     -0.0000072957621130508 
    -0.0000030550721021250     -0.0000030786072530140     -0.0000030676946986207     -0.0000028258488506708     -0.0000021382507649034     -0.0000008210028028249     0.0000013228353384057     0.0000045879968245767     0.0000093967166502810     0.0000162193453277103     0.0000253989834256206     0.0000369311920597724     0.0000532933699762102     0.0000753572676330362     0.0000983558262319276     0.0001158775900909272     0.0001224367447194249     0.0001158775936628224     0.0000983558320095850     0.0000753572734495793     0.0000532933736607370     0.0000369311920597724     0.0000253989790457042     0.0000162193366350933     0.0000093967042406461     0.0000045879816298542     0.0000013228185442984     -0.0000008210197929237     -0.0000021382664363990     -0.0000028258617949126     -0.0000030677038428522     -0.0000030786119589587     -0.0000030550721021250 
    0.0000029591798677910     0.0000027353575316587     0.0000021751717408818     0.0000015545459864538     0.0000011862314838037     0.0000013228353384057     0.0000021575573171555     0.0000038957554004101     0.0000068123653753382     0.0000112315300998145     0.0000174170947909255     0.0000253989790457042     0.0000347846689606906     0.0000455576392791942     0.0000575841792567983     0.0000671561998889182     0.0000708109125695933     0.0000671562043696870     0.0000575841869616339     0.0000455576480899478     0.0000347846765322877     0.0000253989834256206     0.0000174170947909256     0.0000112315253414744     0.0000068123561240155     0.0000038957423874471     0.0000021575416659344     0.0000013228185442984     0.0000011862153073798     0.0000015545321913898     0.0000021751617753358     0.0000027353523340743     0.0000029591798677910 
    0.0000115497158662940     0.0000110326611111808     0.0000096435842633166     0.0000077947076173248     0.0000059747933775899     0.0000045879968245767     0.0000038957554004101     0.0000040625908589897     0.0000052342895680140     0.0000075753821394718     0.0000112315253414744     0.0000162193366350933     0.0000222800364064388     0.0000287700479965901     0.0000346828314605235     0.0000388654531101994     0.0000404284697211685     0.0000388654582001682     0.0000346828405776706     0.0000287700592349859     0.0000222800474549975     0.0000162193453277103     0.0000112315300998145     0.0000075753821394718     0.0000052342846636415     0.0000040625814496288     0.0000038957423874471     0.0000045879816298542     0.0000059747778691189     0.0000077946938343914     0.0000096435740183993     0.0000110326556761022     0.0000115497158662940 
    0.0000237192619657784     0.0000227807210166615     0.0000202080258149083     0.0000166280026813319     0.0000128059952605232     0.0000093967166502809     0.0000068123653753383     0.0000052342895680140     0.0000047074223023829     0.0000052342846636415     0.0000068123561240155     0.0000093967042406461     0.0000128059815026044     0.0000166279897618331     0.0000202080158503652     0.0000227807156135070     0.0000237192619657783     0.0000227807210166615     0.0000202080258149083     0.0000166280026813319     0.0000128059952605232     0.0000093967166502809     0.0000068123653753383     0.0000052342895680140     0.0000047074223023829     0.0000052342846636415     0.0000068123561240155     0.0000093967042406461     0.0000128059815026044     0.0000166279897618331     0.0000202080158503652     0.0000227807156135070     0.0000237192619657784 
    0.0000404284697211685     0.0000388654582001682     0.0000346828405776706     0.0000287700592349859     0.0000222800474549975     0.0000162193453277103     0.0000112315300998145     0.0000075753821394718     0.0000052342846636415     0.0000040625814496288     0.0000038957423874471     0.0000045879816298542     0.0000059747778691189     0.0000077946938343914     0.0000096435740183993     0.0000110326556761022     0.0000115497158662941     0.0000110326611111808     0.0000096435842633166     0.0000077947076173248     0.0000059747933775899     0.0000045879968245767     0.0000038957554004101     0.0000040625908589897     0.0000052342895680140     0.0000075753821394718     0.0000112315253414744     0.0000162193366350933     0.0000222800364064388     0.0000287700479965901     0.0000346828314605235     0.0000388654531101994     0.0000404284697211685 
    0.0000708109125695933     0.0000671562043696870     0.0000575841869616339     0.0000455576480899478     0.0000347846765322878     0.0000253989834256206     0.0000174170947909256     0.0000112315253414744     0.0000068123561240155     0.0000038957423874471     0.0000021575416659344     0.0000013228185442984     0.0000011862153073798     0.0000015545321913898     0.0000021751617753358     0.0000027353523340743     0.0000029591798677910     0.0000027353575316587     0.0000021751717408818     0.0000015545459864538     0.0000011862314838037     0.0000013228353384057     0.0000021575573171555     0.0000038957554004101     0.0000068123653753382     0.0000112315300998145     0.0000174170947909256     0.0000253989790457042     0.0000347846689606906     0.0000455576392791941     0.0000575841792567983     0.0000671561998889182     0.0000708109125695933 
    0.0001224367447194249     0.0001158775936628224     0.0000983558320095850     0.0000753572734495793     0.0000532933736607370     0.0000369311920597724     0.0000253989790457042     0.0000162193366350933     0.0000093967042406461     0.0000045879816298542     0.0000013228185442983     -0.0000008210197929237     -0.0000021382664363990     -0.0000028258617949125     -0.0000030677038428522     -0.0000030786119589587     -0.0000030550721021250     -0.0000030786072530140     -0.0000030676946986207     -0.0000028258488506708     -0.0000021382507649034     -0.0000008210028028249     0.0000013228353384057     0.0000045879968245767     0.0000093967166502810     0.0000162193453277103     0.0000253989834256206     0.0000369311920597724     0.0000532933699762102     0.0000753572676330362     0.0000983558262319276     0.0001158775900909272     0.0001224367447194249 
    0.0001926986203286916     0.0001826888759596220     0.0001556336452426043     0.0001191888514390893     0.0000825881449097611     0.0000532933699762102     0.0000347846689606906     0.0000222800364064388     0.0000128059815026044     0.0000059747778691189     0.0000011862153073798     -0.0000021382664363990     -0.0000044163871211952     -0.0000059007366392345     -0.0000067652323815358     -0.0000071792586095147     -0.0000072957621130507     -0.0000071792546209081     -0.0000067652245524050     -0.0000059007253657577     -0.0000044163731339877     -0.0000021382507649034     0.0000011862314838037     0.0000059747933775899     0.0000128059952605232     0.0000222800474549976     0.0000347846765322877     0.0000532933736607370     0.0000825881449097612     0.0001191888487823684     0.0001556336417070076     0.0001826888735284562     0.0001926986203286916 
    0.0002726247742117800     0.0002590447290805397     0.0002220714692015030     0.0001714624004541430     0.0001191888487823684     0.0000753572676330361     0.0000455576392791941     0.0000287700479965901     0.0000166279897618331     0.0000077946938343914     0.0000015545321913898     -0.0000028258617949126     -0.0000059007366392345     -0.0000080048654015625     -0.0000093349459539939     -0.0000100446715929236     -0.0000102631618443151     -0.0000100446684967290     -0.0000093349398328950     -0.0000080048564780229     -0.0000059007253657577     -0.0000028258488506708     0.0000015545459864538     0.0000077947076173248     0.0000166280026813319     0.0000287700592349859     0.0000455576480899478     0.0000753572734495793     0.0001191888514390893     0.0001714624004541430     0.0002220714677824509     0.0002590447278135330     0.0002726247742117800 
    0.0003477968213302270     0.0003310659660511131     0.0002853120025442583     0.0002220714677824509     0.0001556336417070077     0.0000983558262319275     0.0000575841792567983     0.0000346828314605235     0.0000202080158503652     0.0000096435740183993     0.0000021751617753357     -0.0000030677038428523     -0.0000067652323815359     -0.0000093349459539940     -0.0000110063588135483     -0.0000119306368937651     -0.0000122229122499647     -0.0000119306347968792     -0.0000110063546490012     -0.0000093349398328950     -0.0000067652245524050     -0.0000030676946986207     0.0000021751717408818     0.0000096435842633166     0.0000202080258149084     0.0000346828405776707     0.0000575841869616340     0.0000983558320095851     0.0001556336452426045     0.0002220714692015032     0.0002853120025442583     0.0003310659656632698     0.0003477968213302270 
    0.0004018078430846918     0.0003828993639333148     0.0003310659656632697     0.0002590447278135330     0.0001826888735284562     0.0001158775900909272     0.0000671561998889182     0.0000388654531101994     0.0000227807156135070     0.0000110326556761021     0.0000027353523340742     -0.0000030786119589588     -0.0000071792586095147     -0.0000100446715929236     -0.0000119306368937651     -0.0000129894235285957     -0.0000133279752350486     -0.0000129894224754035     -0.0000119306347968792     -0.0000100446684967290     -0.0000071792546209081     -0.0000030786072530140     0.0000027353575316587     0.0000110326611111808     0.0000227807210166615     0.0000388654582001682     0.0000671562043696871     0.0001158775936628224     0.0001826888759596221     0.0002590447290805397     0.0003310659660511133     0.0003828993639333147     0.0004018078430846918 
    0.0004214957134624434     0.0004018078430846919     0.0003477968213302269     0.0002726247742117799     0.0001926986203286915     0.0001224367447194248     0.0000708109125695933     0.0000404284697211685     0.0000237192619657783     0.0000115497158662940     0.0000029591798677910     -0.0000030550721021250     -0.0000072957621130508     -0.0000102631618443151     -0.0000122229122499647     -0.0000133279752350486     -0.0000136824657384552     -0.0000133279752350486     -0.0000122229122499647     -0.0000102631618443151     -0.0000072957621130508     -0.0000030550721021250     0.0000029591798677910     0.0000115497158662941     0.0000237192619657784     0.0000404284697211686     0.0000708109125695933     0.0001224367447194249     0.0001926986203286916     0.0002726247742117799     0.0003477968213302269     0.0004018078430846919     0.0004214957134624434 
    0.0002328747686011735     0.0002205844139373698     0.0001873221925778547     0.0001424139510702007     0.0000972096591174764     0.0000610611959707736     0.0000384259843075817     0.0000230015875428935     0.0000115607514882979     0.0000034013246181808     -0.0000023397137456833     -0.0000064079524380667     -0.0000093035950235258     -0.0000113034728858211     -0.0000125704752643029     -0.0000132455998643703     -0.0000134531738795454     -0.0000132455998643704     -0.0000125704752643029     -0.0000113034728858211     -0.0000093035950235258     -0.0000064079524380667     -0.0000023397137456833     0.0000034013246181808     0.0000115607514882979     0.0000230015875428935     0.0000384259843075817     0.0000610611959707737     0.0000972096591174764     0.0001424139510702007     0.0001873221925778547     0.0002205844139373698     0.0002328747686011735 
    0.0002205844139373698     0.0002088828650287190     0.0001772501382430633     0.0001346491670198492     0.0000919587960434744     0.0000580828749426088     0.0000369293932825385     0.0000220671631492557     0.0000110431040961937     0.0000031831036357795     -0.0000023422870757078     -0.0000062493257693137     -0.0000090184835208469     -0.0000109175604100139     -0.0000121086892664541     -0.0000127360690151138     -0.0000129273040110217     -0.0000127360700606183     -0.0000121086913375355     -0.0000109175634420172     -0.0000090184873782821     -0.0000062493302434843     -0.0000023422919093929     0.0000031830987151348     0.0000110430993536723     0.0000220671588339961     0.0000369293896249186     0.0000580828721386681     0.0000919587942039501     0.0001346491660903380     0.0001772501379649139     0.0002088828650287190     0.0002205844139373698 
    0.0001873221925778548     0.0001772501379649139     0.0001501214189931499     0.0001138799952740300     0.0000780828016794906     0.0000503798157752505     0.0000327977357140893     0.0000195051166818037     0.0000096524717460145     0.0000026403034972631     -0.0000022697329939508     -0.0000057133979146298     -0.0000081167956992689     -0.0000097231951065389     -0.0000106934995471509     -0.0000111817542481202     -0.0000113253554034814     -0.0000111817563320710     -0.0000106935036654420     -0.0000097232011094547     -0.0000081168032859007     -0.0000057134066333231     -0.0000022697422994482     0.0000026402941709487     0.0000096524629372294     0.0000195051088821291     0.0000327977293542344     0.0000503798111804233     0.0000780827989662450     0.0001138799942178952     0.0001501214189931499     0.0001772501382430633     0.0001873221925778548 
    0.0001424139510702007     0.0001346491660903380     0.0001138799942178952     0.0000865606944724557     0.0000603190833358226     0.0000409643635058101     0.0000269594812655262     0.0000159385830354755     0.0000078016469971832     0.0000020491821773411     -0.0000019303832896919     -0.0000046588007101406     -0.0000064856612954655     -0.0000076225092906574     -0.0000082340363058413     -0.0000084944625765551     -0.0000085597633777981     -0.0000084944656691639     -0.0000082340423885848     -0.0000076225180845093     -0.0000064856722764285     -0.0000046588131264056     -0.0000019303962665901     0.0000020491695144428     0.0000078016354460477     0.0000159385732864885     0.0000269594738689375     0.0000409643587874568     0.0000603190812517428     0.0000865606944724557     0.0001138799952740300     0.0001346491670198492     0.0001424139510702007 
    0.0000972096591174765     0.0000919587942039501     0.0000780827989662450     0.0000603190812517428     0.0000440807571910451     0.0000313555866023875     0.0000205615083485592     0.0000121300041261411     0.0000059800771920459     0.0000017206475092358     -0.0000011170475322017     -0.0000029257297919150     -0.0000039731581712294     -0.0000044476919988781     -0.0000045375418870659     -0.0000044602782539037     -0.0000044084279393665     -0.0000044602822847395     -0.0000045375497542616     -0.0000044477032259672     -0.0000039731719347729     -0.0000029257449812812     -0.0000011170629226005     0.0000017206330761856     0.0000059800647059834     0.0000121299943719927     0.0000205615018586161     0.0000313555835397903     0.0000440807571910452     0.0000603190833358226     0.0000780828016794906     0.0000919587960434744     0.0000972096591174765 
    0.0000610611959707736     0.0000580828721386681     0.0000503798111804232     0.0000409643587874568     0.0000313555835397903     0.0000222630985795042     0.0000146031868738534     0.0000087332131392812     0.0000045924663842871     0.0000019043312960651     0.0000003502859985672     -0.0000003324607483532     -0.0000003437266442173     0.0000001193329188536     0.0000007995264217873     0.0000013881167516014     0.0000016195530751018     0.0000013881119007532     0.0000007995170583733     0.0000001193197993829     -0.0000003437423198552     -0.0000003324774759209     0.0000003502697674288     0.0000019043169191615     0.0000045924549168267     0.0000087332053085304     0.0000146031830319623     0.0000222630985795042     0.0000313555866023874     0.0000409643635058101     0.0000503798157752505     0.0000580828749426088     0.0000610611959707736 
    0.0000384259843075817     0.0000369293896249186     0.0000327977293542343     0.0000269594738689375     0.0000205615018586161     0.0000146031830319624     0.0000097197031034227     0.0000061602143326444     0.0000039005045540575     0.0000027926935465240     0.0000026749178699559     0.0000034045096761073     0.0000048163379610221     0.0000066458924209053     0.0000084898144053743     0.0000098678540098816     0.0000103794180725085     0.0000098678485043978     0.0000084898039312748     0.0000066458780929703     0.0000048163214093625     0.0000034044927886370     0.0000026749024353442     0.0000027926809852669     0.0000039004958269291     0.0000061602099506836     0.0000097197031034226     0.0000146031868738534     0.0000205615083485592     0.0000269594812655262     0.0000327977357140892     0.0000369293932825385     0.0000384259843075817 
    0.0000230015875428935     0.0000220671588339962     0.0000195051088821292     0.0000159385732864885     0.0000121299943719927     0.0000087332053085304     0.0000061602099506836     0.0000045910973463168     0.0000040686262099550     0.0000045938202034836     0.0000061643005911844     0.0000087362416505933     0.0000121291281884755     0.0000159315042905397     0.0000194911208205648     0.0000220477182609566     0.0000229800723864818     0.0000220477123162980     0.0000194911097133939     0.0000159314895469647     0.0000121291118762635     0.0000087362259740291     0.0000061642874461669     0.0000045938109097453     0.0000040686214774974     0.0000045910973463168     0.0000061602143326444     0.0000087332131392812     0.0000121300041261411     0.0000159385830354755     0.0000195051166818037     0.0000220671631492556     0.0000230015875428935 
    0.0000115607514882978     0.0000110430993536723     0.0000096524629372294     0.0000078016354460477     0.0000059800647059834     0.0000045924549168267     0.0000039004958269291     0.0000040686214774975     0.0000052422133308964     0.0000075851210861401     0.0000112421235221061     0.0000162289605499406     0.0000222863444862627     0.0000287709937789962     0.0000346776652592644     0.0000388553918634163     0.0000404165209604521     0.0000388553857504209     0.0000346776540932467     0.0000287709795125150     0.0000222863295713260     0.0000162289473774256     0.0000112421139246142     0.0000075851161191503     0.0000052422133308964     0.0000040686262099549     0.0000039005045540574     0.0000045924663842871     0.0000059800771920458     0.0000078016469971832     0.0000096524717460145     0.0000110431040961937     0.0000115607514882978 
    0.0000034013246181808     0.0000031830987151348     0.0000026402941709487     0.0000020491695144428     0.0000017206330761856     0.0000019043169191615     0.0000027926809852669     0.0000045938109097453     0.0000075851161191503     0.0000120863738868499     0.0000183463069215187     0.0000263729924643464     0.0000357586860073900     0.0000472951573210008     0.0000600913388100553     0.0000701994711469373     0.0000740464351077858     0.0000701994651934130     0.0000600913282534519     0.0000472951445091059     0.0000357586736567548     0.0000263729829637073     0.0000183463018468179     0.0000120863738868499     0.0000075851210861401     0.0000045938202034835     0.0000027926935465240     0.0000019043312960650     0.0000017206475092358     0.0000020491821773410     0.0000026403034972631     0.0000031831036357795     0.0000034013246181808 
    -0.0000023397137456833     -0.0000023422919093928     -0.0000022697422994482     -0.0000019303962665901     -0.0000011170629226005     0.0000003502697674288     0.0000026749024353442     0.0000061642874461669     0.0000112421139246143     0.0000183463018468179     0.0000277456469830466     0.0000398355070104657     0.0000586521001617410     0.0000832063739002248     0.0001083526619671420     0.0001273317094269370     0.0001344073139231624     0.0001273317040198730     0.0001083526527648382     0.0000832063635446074     0.0000586520914429393     0.0000398355020848027     0.0000277456469830466     0.0000183463069215187     0.0000112421235221060     0.0000061643005911843     0.0000026749178699558     0.0000003502859985672     -0.0000011170475322017     -0.0000019303832896919     -0.0000022697329939508     -0.0000023422870757078     -0.0000023397137456833 
    -0.0000064079524380667     -0.0000062493302434843     -0.0000057134066333231     -0.0000046588131264057     -0.0000029257449812812     -0.0000003324774759209     0.0000034044927886370     0.0000087362259740291     0.0000162289473774256     0.0000263729829637073     0.0000398355020848028     0.0000631044908020818     0.0000977451158353799     0.0001395153181809285     0.0001802868732512467     0.0002102303332461474     0.0002212566390259016     0.0002102303288153879     0.0001802868661555631     0.0001395153111502746     0.0000977451114734132     0.0000631044908020818     0.0000398355070104657     0.0000263729924643463     0.0000162289605499406     0.0000087362416505933     0.0000034045096761073     -0.0000003324607483532     -0.0000029257297919151     -0.0000046588007101407     -0.0000057133979146298     -0.0000062493257693137     -0.0000064079524380667 
    -0.0000093035950235258     -0.0000090184873782821     -0.0000081168032859007     -0.0000064856722764285     -0.0000039731719347729     -0.0000003437423198552     0.0000048163214093625     0.0000121291118762635     0.0000222863295713260     0.0000357586736567548     0.0000586520914429394     0.0000977451114734132     0.0001514050567995277     0.0002129394332735134     0.0002711924087412226     0.0003132383820019197     0.0003286007848804071     0.0003132383789177809     0.0002711924042967877     0.0002129394299836386     0.0001514050567995277     0.0000977451158353799     0.0000586521001617410     0.0000357586860073899     0.0000222863444862627     0.0000121291281884755     0.0000048163379610221     -0.0000003437266442173     -0.0000039731581712294     -0.0000064856612954656     -0.0000081167956992689     -0.0000090184835208469     -0.0000093035950235258 
    -0.0000113034728858211     -0.0000109175634420172     -0.0000097232011094547     -0.0000076225180845092     -0.0000044477032259672     0.0000001193197993829     0.0000066458780929704     0.0000159314895469648     0.0000287709795125150     0.0000472951445091059     0.0000832063635446075     0.0001395153111502747     0.0002129394299836386     0.0002944722004490439     0.0003701553959352961     0.0004241799368920033     0.0004438213659621101     0.0004241799352578477     0.0003701553941195772     0.0002944722004490439     0.0002129394332735133     0.0001395153181809285     0.0000832063739002248     0.0000472951573210008     0.0000287709937789961     0.0000159315042905397     0.0000066458924209053     0.0000001193329188536     -0.0000044476919988781     -0.0000076225092906574     -0.0000097231951065389     -0.0000109175604100139     -0.0000113034728858211 
    -0.0000125704752643029     -0.0000121086913375355     -0.0000106935036654419     -0.0000082340423885848     -0.0000045375497542616     0.0000007995170583733     0.0000084898039312747     0.0000194911097133939     0.0000346776540932467     0.0000600913282534519     0.0001083526527648383     0.0001802868661555631     0.0002711924042967877     0.0003701553941195772     0.0004609135515119550     0.0005252607100298335     0.0005485845940111791     0.0005252607095240895     0.0004609135515119550     0.0003701553959352960     0.0002711924087412225     0.0001802868732512467     0.0001083526619671420     0.0000600913388100552     0.0000346776652592643     0.0000194911208205647     0.0000084898144053743     0.0000007995264217873     -0.0000045375418870659     -0.0000082340363058414     -0.0000106934995471509     -0.0000121086892664541     -0.0000125704752643029 
    -0.0000132455998643703     -0.0000127360700606183     -0.0000111817563320710     -0.0000084944656691639     -0.0000044602822847394     0.0000013881119007533     0.0000098678485043978     0.0000220477123162980     0.0000388553857504209     0.0000701994651934130     0.0001273317040198730     0.0002102303288153879     0.0003132383789177809     0.0004241799352578479     0.0005252607095240894     0.0005966652060172045     0.0006225052832051356     0.0005966652060172045     0.0005252607100298333     0.0004241799368920033     0.0003132383820019196     0.0002102303332461474     0.0001273317094269369     0.0000701994711469372     0.0000388553918634162     0.0000220477182609566     0.0000098678540098815     0.0000013881167516014     -0.0000044602782539037     -0.0000084944625765551     -0.0000111817542481202     -0.0000127360690151138     -0.0000132455998643703 
    -0.0000134531738795454     -0.0000129273040110217     -0.0000113253554034814     -0.0000085597633777980     -0.0000044084279393664     0.0000016195530751018     0.0000103794180725085     0.0000229800723864818     0.0000404165209604521     0.0000740464351077859     0.0001344073139231624     0.0002212566390259016     0.0003286007848804072     0.0004438213659621102     0.0005485845940111791     0.0006225052832051358     0.0006492422958343358     0.0006225052832051356     0.0005485845940111790     0.0004438213659621101     0.0003286007848804071     0.0002212566390259016     0.0001344073139231623     0.0000740464351077858     0.0000404165209604520     0.0000229800723864817     0.0000103794180725084     0.0000016195530751018     -0.0000044084279393665     -0.0000085597633777981     -0.0000113253554034814     -0.0000129273040110217     -0.0000134531738795454 
    -0.0000132455998643704     -0.0000127360690151139     -0.0000111817542481203     -0.0000084944625765551     -0.0000044602782539037     0.0000013881167516014     0.0000098678540098815     0.0000220477182609566     0.0000388553918634163     0.0000701994711469373     0.0001273317094269370     0.0002102303332461474     0.0003132383820019197     0.0004241799368920034     0.0005252607100298334     0.0005966652060172046     0.0006225052832051356     0.0005966652060172046     0.0005252607095240894     0.0004241799352578478     0.0003132383789177809     0.0002102303288153879     0.0001273317040198730     0.0000701994651934130     0.0000388553857504209     0.0000220477123162979     0.0000098678485043978     0.0000013881119007532     -0.0000044602822847396     -0.0000084944656691640     -0.0000111817563320710     -0.0000127360700606183     -0.0000132455998643704 
    -0.0000125704752643029     -0.0000121086892664542     -0.0000106934995471510     -0.0000082340363058414     -0.0000045375418870659     0.0000007995264217873     0.0000084898144053743     0.0000194911208205648     0.0000346776652592644     0.0000600913388100553     0.0001083526619671421     0.0001802868732512468     0.0002711924087412226     0.0003701553959352960     0.0004609135515119550     0.0005252607095240895     0.0005485845940111791     0.0005252607100298335     0.0004609135515119550     0.0003701553941195772     0.0002711924042967877     0.0001802868661555631     0.0001083526527648383     0.0000600913282534518     0.0000346776540932467     0.0000194911097133938     0.0000084898039312747     0.0000007995170583733     -0.0000045375497542616     -0.0000082340423885849     -0.0000106935036654420     -0.0000121086913375355     -0.0000125704752643029 
    -0.0000113034728858211     -0.0000109175604100139     -0.0000097231951065388     -0.0000076225092906574     -0.0000044476919988781     0.0000001193329188536     0.0000066458924209053     0.0000159315042905397     0.0000287709937789962     0.0000472951573210008     0.0000832063739002248     0.0001395153181809285     0.0002129394332735134     0.0002944722004490439     0.0003701553941195772     0.0004241799352578477     0.0004438213659621101     0.0004241799368920033     0.0003701553959352961     0.0002944722004490439     0.0002129394299836386     0.0001395153111502746     0.0000832063635446074     0.0000472951445091059     0.0000287709795125150     0.0000159314895469647     0.0000066458780929703     0.0000001193197993829     -0.0000044477032259672     -0.0000076225180845093     -0.0000097232011094547     -0.0000109175634420172     -0.0000113034728858211 
    -0.0000093035950235258     -0.0000090184835208469     -0.0000081167956992689     -0.0000064856612954655     -0.0000039731581712294     -0.0000003437266442173     0.0000048163379610221     0.0000121291281884755     0.0000222863444862628     0.0000357586860073900     0.0000586521001617410     0.0000977451158353800     0.0001514050567995277     0.0002129394299836386     0.0002711924042967877     0.0003132383789177809     0.0003286007848804071     0.0003132383820019197     0.0002711924087412225     0.0002129394332735133     0.0001514050567995277     0.0000977451114734132     0.0000586520914429393     0.0000357586736567547     0.0000222863295713260     0.0000121291118762634     0.0000048163214093625     -0.0000003437423198552     -0.0000039731719347729     -0.0000064856722764285     -0.0000081168032859007     -0.0000090184873782821     -0.0000093035950235258 
    -0.0000064079524380667     -0.0000062493257693137     -0.0000057133979146298     -0.0000046588007101406     -0.0000029257297919150     -0.0000003324607483532     0.0000034045096761073     0.0000087362416505933     0.0000162289605499407     0.0000263729924643464     0.0000398355070104657     0.0000631044908020819     0.0000977451114734132     0.0001395153111502747     0.0001802868661555631     0.0002102303288153879     0.0002212566390259016     0.0002102303332461474     0.0001802868732512467     0.0001395153181809285     0.0000977451158353799     0.0000631044908020818     0.0000398355020848028     0.0000263729829637073     0.0000162289473774256     0.0000087362259740291     0.0000034044927886370     -0.0000003324774759209     -0.0000029257449812812     -0.0000046588131264057     -0.0000057134066333231     -0.0000062493302434843     -0.0000064079524380667 
    -0.0000023397137456833     -0.0000023422870757078     -0.0000022697329939507     -0.0000019303832896919     -0.0000011170475322016     0.0000003502859985672     0.0000026749178699559     0.0000061643005911844     0.0000112421235221061     0.0000183463069215187     0.0000277456469830467     0.0000398355020848028     0.0000586520914429394     0.0000832063635446075     0.0001083526527648383     0.0001273317040198730     0.0001344073139231624     0.0001273317094269370     0.0001083526619671420     0.0000832063739002248     0.0000586521001617410     0.0000398355070104657     0.0000277456469830466     0.0000183463018468179     0.0000112421139246142     0.0000061642874461669     0.0000026749024353442     0.0000003502697674288     -0.0000011170629226005     -0.0000019303962665901     -0.0000022697422994482     -0.0000023422919093928     -0.0000023397137456833 
    0.0000034013246181808     0.0000031831036357795     0.0000026403034972631     0.0000020491821773410     0.0000017206475092358     0.0000019043312960651     0.0000027926935465240     0.0000045938202034836     0.0000075851210861401     0.0000120863738868499     0.0000183463018468180     0.0000263729829637073     0.0000357586736567548     0.0000472951445091059     0.0000600913282534519     0.0000701994651934130     0.0000740464351077858     0.0000701994711469373     0.0000600913388100553     0.0000472951573210008     0.0000357586860073899     0.0000263729924643463     0.0000183463069215187     0.0000120863738868498     0.0000075851161191503     0.0000045938109097452     0.0000027926809852669     0.0000019043169191615     0.0000017206330761856     0.0000020491695144428     0.0000026402941709487     0.0000031830987151348     0.0000034013246181808 
    0.0000115607514882979     0.0000110431040961937     0.0000096524717460145     0.0000078016469971832     0.0000059800771920459     0.0000045924663842872     0.0000039005045540575     0.0000040686262099550     0.0000052422133308964     0.0000075851161191503     0.0000112421139246143     0.0000162289473774256     0.0000222863295713260     0.0000287709795125150     0.0000346776540932467     0.0000388553857504209     0.0000404165209604520     0.0000388553918634162     0.0000346776652592643     0.0000287709937789961     0.0000222863444862627     0.0000162289605499406     0.0000112421235221060     0.0000075851210861401     0.0000052422133308964     0.0000040686214774974     0.0000039004958269291     0.0000045924549168267     0.0000059800647059834     0.0000078016354460476     0.0000096524629372294     0.0000110430993536723     0.0000115607514882979 
    0.0000230015875428935     0.0000220671631492557     0.0000195051166818037     0.0000159385830354755     0.0000121300041261412     0.0000087332131392812     0.0000061602143326444     0.0000045910973463168     0.0000040686214774975     0.0000045938109097453     0.0000061642874461669     0.0000087362259740291     0.0000121291118762635     0.0000159314895469647     0.0000194911097133939     0.0000220477123162980     0.0000229800723864818     0.0000220477182609566     0.0000194911208205647     0.0000159315042905397     0.0000121291281884755     0.0000087362416505933     0.0000061643005911843     0.0000045938202034836     0.0000040686262099549     0.0000045910973463168     0.0000061602099506836     0.0000087332053085304     0.0000121299943719927     0.0000159385732864885     0.0000195051088821291     0.0000220671588339961     0.0000230015875428935 
    0.0000384259843075817     0.0000369293932825385     0.0000327977357140892     0.0000269594812655262     0.0000205615083485592     0.0000146031868738534     0.0000097197031034226     0.0000061602099506836     0.0000039004958269292     0.0000027926809852669     0.0000026749024353443     0.0000034044927886370     0.0000048163214093625     0.0000066458780929704     0.0000084898039312748     0.0000098678485043978     0.0000103794180725085     0.0000098678540098816     0.0000084898144053743     0.0000066458924209053     0.0000048163379610221     0.0000034045096761073     0.0000026749178699558     0.0000027926935465240     0.0000039005045540575     0.0000061602143326444     0.0000097197031034226     0.0000146031830319624     0.0000205615018586161     0.0000269594738689375     0.0000327977293542343     0.0000369293896249185     0.0000384259843075817 
    0.0000610611959707736     0.0000580828749426088     0.0000503798157752505     0.0000409643635058101     0.0000313555866023875     0.0000222630985795042     0.0000146031830319623     0.0000087332053085304     0.0000045924549168267     0.0000019043169191615     0.0000003502697674288     -0.0000003324774759209     -0.0000003437423198552     0.0000001193197993829     0.0000007995170583733     0.0000013881119007532     0.0000016195530751018     0.0000013881167516014     0.0000007995264217873     0.0000001193329188536     -0.0000003437266442173     -0.0000003324607483532     0.0000003502859985672     0.0000019043312960651     0.0000045924663842872     0.0000087332131392812     0.0000146031868738534     0.0000222630985795042     0.0000313555835397903     0.0000409643587874568     0.0000503798111804232     0.0000580828721386681     0.0000610611959707736 
    0.0000972096591174765     0.0000919587960434744     0.0000780828016794906     0.0000603190833358226     0.0000440807571910452     0.0000313555835397903     0.0000205615018586162     0.0000121299943719927     0.0000059800647059834     0.0000017206330761856     -0.0000011170629226005     -0.0000029257449812812     -0.0000039731719347729     -0.0000044477032259673     -0.0000045375497542616     -0.0000044602822847395     -0.0000044084279393665     -0.0000044602782539037     -0.0000045375418870659     -0.0000044476919988781     -0.0000039731581712294     -0.0000029257297919150     -0.0000011170475322017     0.0000017206475092358     0.0000059800771920459     0.0000121300041261411     0.0000205615083485592     0.0000313555866023875     0.0000440807571910452     0.0000603190812517428     0.0000780827989662450     0.0000919587942039501     0.0000972096591174765 
    0.0001424139510702007     0.0001346491670198492     0.0001138799952740300     0.0000865606944724557     0.0000603190812517428     0.0000409643587874568     0.0000269594738689375     0.0000159385732864885     0.0000078016354460477     0.0000020491695144428     -0.0000019303962665901     -0.0000046588131264056     -0.0000064856722764285     -0.0000076225180845093     -0.0000082340423885848     -0.0000084944656691639     -0.0000085597633777981     -0.0000084944625765551     -0.0000082340363058413     -0.0000076225092906574     -0.0000064856612954655     -0.0000046588007101406     -0.0000019303832896919     0.0000020491821773410     0.0000078016469971832     0.0000159385830354755     0.0000269594812655262     0.0000409643635058101     0.0000603190833358226     0.0000865606944724557     0.0001138799942178952     0.0001346491660903379     0.0001424139510702007 
    0.0001873221925778548     0.0001772501382430633     0.0001501214189931499     0.0001138799942178952     0.0000780827989662450     0.0000503798111804233     0.0000327977293542343     0.0000195051088821292     0.0000096524629372294     0.0000026402941709487     -0.0000022697422994482     -0.0000057134066333231     -0.0000081168032859007     -0.0000097232011094547     -0.0000106935036654420     -0.0000111817563320710     -0.0000113253554034814     -0.0000111817542481203     -0.0000106934995471509     -0.0000097231951065389     -0.0000081167956992689     -0.0000057133979146298     -0.0000022697329939507     0.0000026403034972631     0.0000096524717460145     0.0000195051166818037     0.0000327977357140892     0.0000503798157752505     0.0000780828016794906     0.0001138799952740300     0.0001501214189931499     0.0001772501379649139     0.0001873221925778548 
    0.0002205844139373698     0.0002088828650287190     0.0001772501379649138     0.0001346491660903380     0.0000919587942039501     0.0000580828721386681     0.0000369293896249185     0.0000220671588339961     0.0000110430993536723     0.0000031830987151348     -0.0000023422919093928     -0.0000062493302434843     -0.0000090184873782820     -0.0000109175634420172     -0.0000121086913375355     -0.0000127360700606183     -0.0000129273040110217     -0.0000127360690151138     -0.0000121086892664541     -0.0000109175604100139     -0.0000090184835208468     -0.0000062493257693137     -0.0000023422870757078     0.0000031831036357796     0.0000110431040961937     0.0000220671631492557     0.0000369293932825385     0.0000580828749426088     0.0000919587960434744     0.0001346491670198492     0.0001772501382430633     0.0002088828650287190     0.0002205844139373698 
    0.0002328747686011735     0.0002205844139373698     0.0001873221925778547     0.0001424139510702007     0.0000972096591174764     0.0000610611959707736     0.0000384259843075817     0.0000230015875428935     0.0000115607514882979     0.0000034013246181808     -0.0000023397137456833     -0.0000064079524380667     -0.0000093035950235258     -0.0000113034728858211     -0.0000125704752643029     -0.0000132455998643703     -0.0000134531738795454     -0.0000132455998643704     -0.0000125704752643029     -0.0000113034728858211     -0.0000093035950235258     -0.0000064079524380667     -0.0000023397137456833     0.0000034013246181808     0.0000115607514882979     0.0000230015875428935     0.0000384259843075817     0.0000610611959707737     0.0000972096591174764     0.0001424139510702007     0.0001873221925778547     0.0002205844139373698     0.0002328747686011735 
    0.0001071564246347758     0.0001012727724255035     0.0000857857794022131     0.0000661675269334789     0.0000485501486537684     0.0000333435633650134     0.0000204686795015178     0.0000104095179868408     0.0000029810811735769     -0.0000023278824439979     -0.0000060782855214214     -0.0000087185769216624     -0.0000105385754442063     -0.0000117141904491270     -0.0000123864471456413     -0.0000127028422651253     -0.0000127910861452061     -0.0000127028422651253     -0.0000123864471456414     -0.0000117141904491270     -0.0000105385754442063     -0.0000087185769216624     -0.0000060782855214214     -0.0000023278824439978     0.0000029810811735769     0.0000104095179868408     0.0000204686795015178     0.0000333435633650134     0.0000485501486537684     0.0000661675269334789     0.0000857857794022131     0.0001012727724255035     0.0001071564246347758 
    0.0001012727724255035     0.0000957580462263625     0.0000812745455675886     0.0000630232475394289     0.0000465850093857272     0.0000319627619330136     0.0000195751275243269     0.0000098964208303868     0.0000027567829499749     -0.0000023304608303669     -0.0000059030885479900     -0.0000083934952453304     -0.0000100842724620280     -0.0000111517326801905     -0.0000117415077097903     -0.0000120061624930852     -0.0000120767832965329     -0.0000120061635116689     -0.0000117415097100113     -0.0000111517355739163     -0.0000100842760958249     -0.0000083934994023086     -0.0000059030929689925     -0.0000023304652437735     0.0000027567788030512     0.0000098964171793022     0.0000195751245539426     0.0000319627597609652     0.0000465850080288015     0.0000630232468837498     0.0000812745453781708     0.0000957580462263625     0.0001012727724255035 
    0.0000857857794022131     0.0000812745453781708     0.0000695147706588136     0.0000549545047852495     0.0000411473787986614     0.0000281463573731748     0.0000171206394179448     0.0000085143559447894     0.0000021954030938537     -0.0000022578515211611     -0.0000053200137176052     -0.0000073783347404688     -0.0000086944879525658     -0.0000094459746191670     -0.0000097926932094816     -0.0000099037236433647     -0.0000099217865187897     -0.0000099037256699142     -0.0000097926971802463     -0.0000094459803402529     -0.0000086944950918824     -0.0000073783428372958     -0.0000053200222328901     -0.0000022578599027011     0.0000021953953595900     0.0000085143492991050     0.0000171206341976334     0.0000281463537613910     0.0000411473767606670     0.0000549545040248083     0.0000695147706588136     0.0000812745455675885     0.0000857857794022131 
    0.0000661675269334789     0.0000630232468837498     0.0000549545040248083     0.0000446916903866688     0.0000334240958049236     0.0000227424570997421     0.0000136922155606482     0.0000066653865485440     0.0000015734802302246     -0.0000019181920988157     -0.0000041938480048655     -0.0000055728693598955     -0.0000062853060553808     -0.0000065138587818559     -0.0000064481583396307     -0.0000062933645751088     -0.0000062194945666310     -0.0000062933675890456     -0.0000064481642170655     -0.0000065138671803110     -0.0000062853164100875     -0.0000055728809167640     -0.0000041938599160070     -0.0000019182035317496     0.0000015734700147159     0.0000066653781502703     0.0000136922093917646     0.0000227424533096892     0.0000334240941965185     0.0000446916903866688     0.0000549545047852495     0.0000630232475394289     0.0000661675269334789 
    0.0000485501486537684     0.0000465850080288015     0.0000411473767606670     0.0000334240941965185     0.0000248825613778405     0.0000168059398985782     0.0000100152531834218     0.0000048315258846662     0.0000012045530949873     -0.0000011040129527110     -0.0000023694406285979     -0.0000028267396567298     -0.0000026715170385663     -0.0000021087450020042     -0.0000013924852181716     -0.0000008058772371297     -0.0000005803660189513     -0.0000008058812073560     -0.0000013924928978442     -0.0000021087558267258     -0.0000026715301295868     -0.0000028267539066167     -0.0000023694548644714     -0.0000011040260955496     0.0000012045419348833     0.0000048315173621892     0.0000100152476655032     0.0000168059373748021     0.0000248825613778404     0.0000334240958049236     0.0000411473787986614     0.0000465850093857272     0.0000485501486537684 
    0.0000333435633650134     0.0000319627597609652     0.0000281463537613911     0.0000227424533096892     0.0000168059373748021     0.0000112657315368468     0.0000067216108226008     0.0000034175408506932     0.0000013419436304576     0.0000003650140537978     0.0000003381246665619     0.0000011202707717867     0.0000025379767113246     0.0000043218411952652     0.0000060842389837480     0.0000073840114225205     0.0000078633098828278     0.0000073840065439860     0.0000060842296575743     0.0000043218283047447     0.0000025379615433187     0.0000011202548365489     0.0000003381094436528     0.0000003650007866666     0.0000013419332349442     0.0000034175338943849     0.0000067216074875280     0.0000112657315368468     0.0000168059398985782     0.0000227424570997421     0.0000281463573731748     0.0000319627619330136     0.0000333435633650134 
    0.0000204686795015178     0.0000195751245539426     0.0000171206341976334     0.0000136922093917646     0.0000100152476655032     0.0000067216074875281     0.0000042182125992383     0.0000026885797502306     0.0000021792932487268     0.0000026924821384392     0.0000042238449290274     0.0000067251161806872     0.0000100121524919901     0.0000136789543115446     0.0000170961994061008     0.0000195419385633526     0.0000204321754998508     0.0000195419328624461     0.0000170961886716297     0.0000136789398446860     0.0000100121360664949     0.0000067250997226056     0.0000042238301573535     0.0000026924703330376     0.0000021792851977088     0.0000026885757855395     0.0000042182125992382     0.0000067216108226008     0.0000100152531834217     0.0000136922155606482     0.0000171206394179448     0.0000195751275243269     0.0000204686795015178 
    0.0000104095179868408     0.0000098964171793022     0.0000085143492991051     0.0000066653781502703     0.0000048315173621893     0.0000034175338943849     0.0000026885757855396     0.0000028095239820857     0.0000039219693977256     0.0000061859960471974     0.0000097472351588523     0.0000146277078083812     0.0000205770597565355     0.0000269609513746158     0.0000327833639385681     0.0000369024194737420     0.0000383941957382105     0.0000369024131108622     0.0000327833521749606     0.0000269609360022464     0.0000205770430655821     0.0000146276920919381     0.0000097472222542226     0.0000061859871131893     0.0000039219649419069     0.0000028095239820857     0.0000026885797502306     0.0000034175408506931     0.0000048315258846662     0.0000066653865485439     0.0000085143559447894     0.0000098964208303868     0.0000104095179868408 
    0.0000029810811735769     0.0000027567788030513     0.0000021953953595901     0.0000015734700147159     0.0000012045419348833     0.0000013419332349443     0.0000021792851977088     0.0000039219649419069     0.0000068443054185076     0.0000112690313208354     0.0000174577034912125     0.0000254375430597742     0.0000348141255166952     0.0000455719806432558     0.0000575801627939369     0.0000671358970890448     0.0000707840187479181     0.0000671358903312300     0.0000575801505757494     0.0000455719652735116     0.0000348141097564958     0.0000254375294415347     0.0000174576937976644     0.0000112690264228366     0.0000068443054185076     0.0000039219693977256     0.0000021792932487268     0.0000013419436304576     0.0000012045530949873     0.0000015734802302246     0.0000021954030938537     0.0000027567829499749     0.0000029810811735769 
    -0.0000023278824439978     -0.0000023304652437734     -0.0000022578599027011     -0.0000019182035317496     -0.0000011040260955496     0.0000003650007866666     0.0000026924703330376     0.0000061859871131893     0.0000112690264228367     0.0000183786087881977     0.0000277817252383558     0.0000398719168621963     0.0000586859976254153     0.0000832300775505199     0.0001083597943218353     0.0001273232871734811     0.0001343925401875541     0.0001273232804053553     0.0001083597824316212     0.0000832300633285797     0.0000586859841711040     0.0000398719067390892     0.0000277817199625821     0.0000183786087881976     0.0000112690313208354     0.0000061859960471973     0.0000026924821384391     0.0000003650140537978     -0.0000011040129527111     -0.0000019181920988158     -0.0000022578515211611     -0.0000023304608303670     -0.0000023278824439978 
    -0.0000060782855214214     -0.0000059030929689925     -0.0000053200222328900     -0.0000041938599160070     -0.0000023694548644714     0.0000003381094436528     0.0000042238301573535     0.0000097472222542227     0.0000174576937976644     0.0000277817199625821     0.0000418544738233002     0.0000666078406754070     0.0001027536861779512     0.0001458680884776590     0.0001876919593042346     0.0002183059375126611     0.0002295628233029813     0.0002183059312319028     0.0001876919486972862     0.0001458680766912609     0.0001027536764235548     0.0000666078352804914     0.0000418544738233002     0.0000277817252383558     0.0000174577034912125     0.0000097472351588523     0.0000042238449290274     0.0000003381246665618     -0.0000023694406285979     -0.0000041938480048655     -0.0000053200137176052     -0.0000059030885479900     -0.0000060782855214214 
    -0.0000087185769216624     -0.0000083934994023085     -0.0000073783428372958     -0.0000055728809167640     -0.0000028267539066167     0.0000011202548365490     0.0000067250997226056     0.0000146276920919381     0.0000254375294415347     0.0000398719067390893     0.0000666078352804914     0.0001098122189040772     0.0001673103309631985     0.0002320591216342665     0.0002927247841710951     0.0003362762483329484     0.0003521527406613077     0.0003362762431112427     0.0002927247758568628     0.0002320591134781819     0.0001673103259761186     0.0001098122189040772     0.0000666078406754069     0.0000398719168621963     0.0000254375430597742     0.0000146277078083812     0.0000067251161806872     0.0000011202707717867     -0.0000028267396567298     -0.0000055728693598955     -0.0000073783347404688     -0.0000083934952453305     -0.0000087185769216624 
    -0.0000105385754442064     -0.0000100842760958249     -0.0000086944950918824     -0.0000062853164100875     -0.0000026715301295868     0.0000025379615433187     0.0000100121360664949     0.0000205770430655821     0.0000348141097564958     0.0000586859841711041     0.0001027536764235548     0.0001673103259761186     0.0002481132623557334     0.0003356696167828005     0.0004158443282605415     0.0004726885455729825     0.0004932996688616133     0.0004726885419084727     0.0004158443229995348     0.0003356696129158989     0.0002481132623557334     0.0001673103309631984     0.0001027536861779511     0.0000586859976254152     0.0000348141255166952     0.0000205770597565355     0.0000100121524919900     0.0000025379767113245     -0.0000026715170385664     -0.0000062853060553808     -0.0000086944879525658     -0.0000100842724620280     -0.0000105385754442064 
    -0.0000117141904491270     -0.0000111517355739162     -0.0000094459803402528     -0.0000065138671803110     -0.0000021087558267257     0.0000043218283047448     0.0000136789398446860     0.0000269609360022465     0.0000455719652735117     0.0000832300633285798     0.0001458680766912609     0.0002320591134781820     0.0003356696129158989     0.0004451385724093181     0.0005439236509506866     0.0006134325620820063     0.0006385565383216115     0.0006134325601332713     0.0005439236487897986     0.0004451385724093181     0.0003356696167828003     0.0002320591216342665     0.0001458680884776590     0.0000832300775505199     0.0000455719806432558     0.0000269609513746157     0.0000136789543115446     0.0000043218411952651     -0.0000021087450020042     -0.0000065138587818559     -0.0000094459746191670     -0.0000111517326801905     -0.0000117141904491270 
    -0.0000123864471456413     -0.0000117415097100113     -0.0000097926971802463     -0.0000064481642170655     -0.0000013924928978442     0.0000060842296575744     0.0000170961886716298     0.0000327833521749607     0.0000575801505757495     0.0001083597824316212     0.0001876919486972863     0.0002927247758568629     0.0004158443229995350     0.0005439236487897987     0.0006585088072262427     0.0007387923092206516     0.0007677619393881993     0.0007387923086169200     0.0006585088072262427     0.0005439236509506865     0.0004158443282605415     0.0002927247841710951     0.0001876919593042345     0.0001083597943218353     0.0000575801627939369     0.0000327833639385681     0.0000170961994061007     0.0000060842389837480     -0.0000013924852181716     -0.0000064481583396307     -0.0000097926932094816     -0.0000117415077097903     -0.0000123864471456413 
    -0.0000127028422651253     -0.0000120061635116688     -0.0000099037256699142     -0.0000062933675890456     -0.0000008058812073559     0.0000073840065439860     0.0000195419328624461     0.0000369024131108623     0.0000671358903312301     0.0001273232804053553     0.0002183059312319028     0.0003362762431112427     0.0004726885419084725     0.0006134325601332713     0.0007387923086169200     0.0008264421198034984     0.0008580449056879053     0.0008264421198034984     0.0007387923092206515     0.0006134325620820063     0.0004726885455729823     0.0003362762483329482     0.0002183059375126611     0.0001273232871734811     0.0000671358970890447     0.0000369024194737420     0.0000195419385633525     0.0000073840114225205     -0.0000008058772371297     -0.0000062933645751088     -0.0000099037236433646     -0.0000120061624930853     -0.0000127028422651253 
    -0.0000127910861452061     -0.0000120767832965329     -0.0000099217865187897     -0.0000062194945666309     -0.0000005803660189513     0.0000078633098828278     0.0000204321754998508     0.0000383941957382105     0.0000707840187479181     0.0001343925401875541     0.0002295628233029813     0.0003521527406613077     0.0004932996688616131     0.0006385565383216115     0.0007677619393881992     0.0008580449056879055     0.0008905897021257320     0.0008580449056879053     0.0007677619393881992     0.0006385565383216115     0.0004932996688616131     0.0003521527406613077     0.0002295628233029813     0.0001343925401875541     0.0000707840187479181     0.0000383941957382105     0.0000204321754998508     0.0000078633098828278     -0.0000005803660189513     -0.0000062194945666310     -0.0000099217865187897     -0.0000120767832965329     -0.0000127910861452061 
    -0.0000127028422651253     -0.0000120061624930853     -0.0000099037236433646     -0.0000062933645751087     -0.0000008058772371296     0.0000073840114225205     0.0000195419385633526     0.0000369024194737420     0.0000671358970890448     0.0001273232871734811     0.0002183059375126612     0.0003362762483329483     0.0004726885455729824     0.0006134325620820063     0.0007387923092206516     0.0008264421198034985     0.0008580449056879053     0.0008264421198034984     0.0007387923086169200     0.0006134325601332712     0.0004726885419084725     0.0003362762431112427     0.0002183059312319027     0.0001273232804053553     0.0000671358903312300     0.0000369024131108622     0.0000195419328624461     0.0000073840065439861     -0.0000008058812073560     -0.0000062933675890456     -0.0000099037256699141     -0.0000120061635116688     -0.0000127028422651253 
    -0.0000123864471456414     -0.0000117415077097903     -0.0000097926932094817     -0.0000064481583396307     -0.0000013924852181716     0.0000060842389837480     0.0000170961994061008     0.0000327833639385681     0.0000575801627939370     0.0001083597943218354     0.0001876919593042346     0.0002927247841710951     0.0004158443282605416     0.0005439236509506866     0.0006585088072262427     0.0007387923086169200     0.0007677619393881993     0.0007387923092206516     0.0006585088072262428     0.0005439236487897987     0.0004158443229995348     0.0002927247758568629     0.0001876919486972862     0.0001083597824316211     0.0000575801505757494     0.0000327833521749606     0.0000170961886716297     0.0000060842296575744     -0.0000013924928978442     -0.0000064481642170655     -0.0000097926971802463     -0.0000117415097100113     -0.0000123864471456414 
    -0.0000117141904491270     -0.0000111517326801905     -0.0000094459746191670     -0.0000065138587818559     -0.0000021087450020042     0.0000043218411952652     0.0000136789543115446     0.0000269609513746158     0.0000455719806432559     0.0000832300775505199     0.0001458680884776590     0.0002320591216342666     0.0003356696167828004     0.0004451385724093181     0.0005439236487897986     0.0006134325601332713     0.0006385565383216115     0.0006134325620820063     0.0005439236509506866     0.0004451385724093181     0.0003356696129158988     0.0002320591134781820     0.0001458680766912609     0.0000832300633285797     0.0000455719652735117     0.0000269609360022464     0.0000136789398446860     0.0000043218283047447     -0.0000021087558267258     -0.0000065138671803110     -0.0000094459803402529     -0.0000111517355739163     -0.0000117141904491270 
    -0.0000105385754442063     -0.0000100842724620280     -0.0000086944879525658     -0.0000062853060553808     -0.0000026715170385663     0.0000025379767113246     0.0000100121524919901     0.0000205770597565355     0.0000348141255166952     0.0000586859976254153     0.0001027536861779512     0.0001673103309631984     0.0002481132623557334     0.0003356696129158989     0.0004158443229995348     0.0004726885419084726     0.0004932996688616133     0.0004726885455729824     0.0004158443282605415     0.0003356696167828004     0.0002481132623557334     0.0001673103259761186     0.0001027536764235548     0.0000586859841711040     0.0000348141097564958     0.0000205770430655821     0.0000100121360664949     0.0000025379615433187     -0.0000026715301295868     -0.0000062853164100875     -0.0000086944950918823     -0.0000100842760958248     -0.0000105385754442063 
    -0.0000087185769216624     -0.0000083934952453304     -0.0000073783347404688     -0.0000055728693598955     -0.0000028267396567298     0.0000011202707717867     0.0000067251161806872     0.0000146277078083812     0.0000254375430597742     0.0000398719168621963     0.0000666078406754070     0.0001098122189040772     0.0001673103259761186     0.0002320591134781819     0.0002927247758568628     0.0003362762431112426     0.0003521527406613077     0.0003362762483329484     0.0002927247841710951     0.0002320591216342665     0.0001673103309631984     0.0001098122189040772     0.0000666078352804914     0.0000398719067390893     0.0000254375294415346     0.0000146276920919381     0.0000067250997226056     0.0000011202548365490     -0.0000028267539066167     -0.0000055728809167640     -0.0000073783428372958     -0.0000083934994023085     -0.0000087185769216624 
    -0.0000060782855214214     -0.0000059030885479900     -0.0000053200137176051     -0.0000041938480048655     -0.0000023694406285979     0.0000003381246665619     0.0000042238449290274     0.0000097472351588523     0.0000174577034912125     0.0000277817252383558     0.0000418544738233002     0.0000666078352804914     0.0001027536764235548     0.0001458680766912609     0.0001876919486972862     0.0002183059312319027     0.0002295628233029813     0.0002183059375126611     0.0001876919593042346     0.0001458680884776590     0.0001027536861779511     0.0000666078406754070     0.0000418544738233002     0.0000277817199625821     0.0000174576937976644     0.0000097472222542227     0.0000042238301573535     0.0000003381094436528     -0.0000023694548644714     -0.0000041938599160070     -0.0000053200222328900     -0.0000059030929689925     -0.0000060782855214214 
    -0.0000023278824439979     -0.0000023304608303670     -0.0000022578515211611     -0.0000019181920988157     -0.0000011040129527111     0.0000003650140537978     0.0000026924821384392     0.0000061859960471974     0.0000112690313208354     0.0000183786087881976     0.0000277817199625821     0.0000398719067390893     0.0000586859841711040     0.0000832300633285797     0.0001083597824316211     0.0001273232804053553     0.0001343925401875541     0.0001273232871734811     0.0001083597943218353     0.0000832300775505199     0.0000586859976254153     0.0000398719168621963     0.0000277817252383558     0.0000183786087881976     0.0000112690264228367     0.0000061859871131893     0.0000026924703330376     0.0000003650007866666     -0.0000011040260955497     -0.0000019182035317496     -0.0000022578599027011     -0.0000023304652437734     -0.0000023278824439979 
    0.0000029810811735769     0.0000027567829499749     0.0000021954030938537     0.0000015734802302246     0.0000012045530949873     0.0000013419436304576     0.0000021792932487268     0.0000039219693977256     0.0000068443054185076     0.0000112690264228366     0.0000174576937976644     0.0000254375294415346     0.0000348141097564958     0.0000455719652735116     0.0000575801505757494     0.0000671358903312300     0.0000707840187479181     0.0000671358970890447     0.0000575801627939369     0.0000455719806432558     0.0000348141255166952     0.0000254375430597742     0.0000174577034912125     0.0000112690313208354     0.0000068443054185076     0.0000039219649419069     0.0000021792851977088     0.0000013419332349443     0.0000012045419348833     0.0000015734700147159     0.0000021953953595901     0.0000027567788030512     0.0000029810811735769 
    0.0000104095179868408     0.0000098964208303868     0.0000085143559447894     0.0000066653865485439     0.0000048315258846662     0.0000034175408506931     0.0000026885797502306     0.0000028095239820857     0.0000039219649419069     0.0000061859871131893     0.0000097472222542226     0.0000146276920919381     0.0000205770430655821     0.0000269609360022464     0.0000327833521749607     0.0000369024131108622     0.0000383941957382105     0.0000369024194737420     0.0000327833639385681     0.0000269609513746158     0.0000205770597565356     0.0000146277078083812     0.0000097472351588523     0.0000061859960471974     0.0000039219693977256     0.0000028095239820857     0.0000026885757855396     0.0000034175338943849     0.0000048315173621893     0.0000066653781502703     0.0000085143492991050     0.0000098964171793022     0.0000104095179868408 
    0.0000204686795015178     0.0000195751275243269     0.0000171206394179448     0.0000136922155606482     0.0000100152531834218     0.0000067216108226008     0.0000042182125992383     0.0000026885757855395     0.0000021792851977088     0.0000026924703330376     0.0000042238301573535     0.0000067250997226056     0.0000100121360664949     0.0000136789398446860     0.0000170961886716297     0.0000195419328624461     0.0000204321754998508     0.0000195419385633526     0.0000170961994061008     0.0000136789543115446     0.0000100121524919901     0.0000067251161806872     0.0000042238449290274     0.0000026924821384392     0.0000021792932487268     0.0000026885797502306     0.0000042182125992383     0.0000067216074875281     0.0000100152476655032     0.0000136922093917646     0.0000171206341976334     0.0000195751245539426     0.0000204686795015178 
    0.0000333435633650134     0.0000319627619330136     0.0000281463573731748     0.0000227424570997421     0.0000168059398985782     0.0000112657315368468     0.0000067216074875280     0.0000034175338943849     0.0000013419332349442     0.0000003650007866665     0.0000003381094436528     0.0000011202548365489     0.0000025379615433187     0.0000043218283047447     0.0000060842296575743     0.0000073840065439860     0.0000078633098828277     0.0000073840114225205     0.0000060842389837480     0.0000043218411952651     0.0000025379767113245     0.0000011202707717867     0.0000003381246665619     0.0000003650140537978     0.0000013419436304576     0.0000034175408506932     0.0000067216108226008     0.0000112657315368468     0.0000168059373748021     0.0000227424533096892     0.0000281463537613911     0.0000319627597609652     0.0000333435633650134 
    0.0000485501486537684     0.0000465850093857272     0.0000411473787986614     0.0000334240958049236     0.0000248825613778405     0.0000168059373748021     0.0000100152476655032     0.0000048315173621892     0.0000012045419348832     -0.0000011040260955497     -0.0000023694548644714     -0.0000028267539066167     -0.0000026715301295868     -0.0000021087558267258     -0.0000013924928978442     -0.0000008058812073560     -0.0000005803660189513     -0.0000008058772371297     -0.0000013924852181716     -0.0000021087450020042     -0.0000026715170385664     -0.0000028267396567298     -0.0000023694406285979     -0.0000011040129527110     0.0000012045530949873     0.0000048315258846662     0.0000100152531834218     0.0000168059398985782     0.0000248825613778405     0.0000334240941965185     0.0000411473767606670     0.0000465850080288015     0.0000485501486537684 
    0.0000661675269334789     0.0000630232475394289     0.0000549545047852495     0.0000446916903866688     0.0000334240941965185     0.0000227424533096892     0.0000136922093917646     0.0000066653781502703     0.0000015734700147159     -0.0000019182035317496     -0.0000041938599160070     -0.0000055728809167640     -0.0000062853164100875     -0.0000065138671803110     -0.0000064481642170655     -0.0000062933675890456     -0.0000062194945666310     -0.0000062933645751088     -0.0000064481583396307     -0.0000065138587818559     -0.0000062853060553808     -0.0000055728693598955     -0.0000041938480048655     -0.0000019181920988157     0.0000015734802302246     0.0000066653865485440     0.0000136922155606482     0.0000227424570997421     0.0000334240958049236     0.0000446916903866688     0.0000549545040248083     0.0000630232468837498     0.0000661675269334789 
    0.0000857857794022131     0.0000812745455675886     0.0000695147706588136     0.0000549545040248083     0.0000411473767606670     0.0000281463537613910     0.0000171206341976334     0.0000085143492991050     0.0000021953953595900     -0.0000022578599027011     -0.0000053200222328901     -0.0000073783428372958     -0.0000086944950918824     -0.0000094459803402529     -0.0000097926971802463     -0.0000099037256699142     -0.0000099217865187897     -0.0000099037236433647     -0.0000097926932094817     -0.0000094459746191671     -0.0000086944879525658     -0.0000073783347404688     -0.0000053200137176052     -0.0000022578515211611     0.0000021954030938537     0.0000085143559447894     0.0000171206394179448     0.0000281463573731748     0.0000411473787986614     0.0000549545047852495     0.0000695147706588136     0.0000812745453781708     0.0000857857794022131 
    0.0001012727724255035     0.0000957580462263625     0.0000812745453781708     0.0000630232468837498     0.0000465850080288015     0.0000319627597609651     0.0000195751245539425     0.0000098964171793022     0.0000027567788030512     -0.0000023304652437735     -0.0000059030929689925     -0.0000083934994023086     -0.0000100842760958249     -0.0000111517355739163     -0.0000117415097100113     -0.0000120061635116689     -0.0000120767832965329     -0.0000120061624930853     -0.0000117415077097903     -0.0000111517326801906     -0.0000100842724620280     -0.0000083934952453304     -0.0000059030885479900     -0.0000023304608303669     0.0000027567829499749     0.0000098964208303868     0.0000195751275243269     0.0000319627619330136     0.0000465850093857272     0.0000630232475394289     0.0000812745455675886     0.0000957580462263625     0.0001012727724255035 
    0.0001071564246347758     0.0001012727724255035     0.0000857857794022131     0.0000661675269334789     0.0000485501486537684     0.0000333435633650134     0.0000204686795015178     0.0000104095179868408     0.0000029810811735769     -0.0000023278824439979     -0.0000060782855214214     -0.0000087185769216624     -0.0000105385754442063     -0.0000117141904491270     -0.0000123864471456413     -0.0000127028422651253     -0.0000127910861452061     -0.0000127028422651253     -0.0000123864471456414     -0.0000117141904491270     -0.0000105385754442063     -0.0000087185769216624     -0.0000060782855214214     -0.0000023278824439978     0.0000029810811735769     0.0000104095179868408     0.0000204686795015178     0.0000333435633650134     0.0000485501486537684     0.0000661675269334789     0.0000857857794022131     0.0001012727724255035     0.0001071564246347758 
    0.0000518615494909898     0.0000496228354024271     0.0000434397635108812     0.0000346795044478172     0.0000249956278883773     0.0000157861247965220     0.0000079042896311827     0.0000016578752834072     -0.0000030223322543746     -0.0000063837305058405     -0.0000087055073756217     -0.0000102267699331168     -0.0000111360169604542     -0.0000115944468021620     -0.0000117595855798419     -0.0000117821431604926     -0.0000117755281541642     -0.0000117821431604926     -0.0000117595855798419     -0.0000115944468021620     -0.0000111360169604542     -0.0000102267699331168     -0.0000087055073756217     -0.0000063837305058405     -0.0000030223322543745     0.0000016578752834072     0.0000079042896311827     0.0000157861247965220     0.0000249956278883773     0.0000346795044478172     0.0000434397635108812     0.0000496228354024271     0.0000518615494909898 
    0.0000496228354024271     0.0000474800402402758     0.0000415578705915511     0.0000331571576103298     0.0000238575130617382     0.0000150030232758485     0.0000074230707031193     0.0000014256847751039     -0.0000030458623638849     -0.0000062247372051280     -0.0000083800761760493     -0.0000097470434488506     -0.0000105160206603186     -0.0000108542576040954     -0.0000109268262526396     -0.0000108909960798034     -0.0000108644303177937     -0.0000108909970423197     -0.0000109268281217471     -0.0000108542602700636     -0.0000105160239633427     -0.0000097470471851511     -0.0000083800801086070     -0.0000062247410805862     -0.0000030458659350973     0.0000014256817220934     0.0000074230683190985     0.0000150030216200454     0.0000238575120852840     0.0000331571571645965     0.0000415578704688332     0.0000474800402402758     0.0000496228354024271 
    0.0000434397635108812     0.0000415578704688331     0.0000363477312451750     0.0000289346156615466     0.0000207001653771160     0.0000128411910548728     0.0000061182594069470     0.0000008352198570959     -0.0000030347437683763     -0.0000056876208770169     -0.0000073638285265290     -0.0000082848420854422     -0.0000086439017352692     -0.0000086251186927001     -0.0000084177764610114     -0.0000082027314048619     -0.0000081144070595389     -0.0000082027333137507     -0.0000084177801603893     -0.0000086251239488314     -0.0000086439082078111     -0.0000082848493458262     -0.0000073638360879661     -0.0000056876282338041     -0.0000030347504410187     0.0000008352142710568     0.0000061182551759824     0.0000128411882591288     0.0000207001638793925     0.0000289346151309075     0.0000363477312451750     0.0000415578705915511     0.0000434397635108812 
    0.0000346795044478172     0.0000331571571645965     0.0000289346151309075     0.0000229085919416123     0.0000161970998612790     0.0000097924209365061     0.0000043495475361776     0.0000001530427367170     -0.0000027919729290413     -0.0000046307516112401     -0.0000055564084439983     -0.0000057614200426759     -0.0000054382018841858     -0.0000048004114219623     -0.0000040888406657813     -0.0000035414038809807     -0.0000033367306004169     -0.0000035414067215220     -0.0000040888461451811     -0.0000048004191427845     -0.0000054382112754036     -0.0000057614304067478     -0.0000055564190237758     -0.0000046307616606734     -0.0000027919817777966     0.0000001530356184843     0.0000043495424635510     0.0000097924179371396     0.0000161970986427131     0.0000229085919416123     0.0000289346156615466     0.0000331571576103299     0.0000346795044478172 
    0.0000249956278883773     0.0000238575120852840     0.0000207001638793925     0.0000161970986427131     0.0000111995775571683     0.0000064789057900733     0.0000025602894414445     -0.0000003108423212420     -0.0000021020115672594     -0.0000028938815737800     -0.0000028071818492602     -0.0000019839674003649     -0.0000006140554297078     0.0000010313157001865     0.0000026031398505214     0.0000037362119645259     0.0000041492334312025     0.0000037362081875909     0.0000026031326244110     0.0000010313056612709     -0.0000006140673948662     -0.0000019839802615921     -0.0000028071945619770     -0.0000028938931887503     -0.0000021020213036366     -0.0000003108496249578     0.0000025602848253954     0.0000064789037415151     0.0000111995775571684     0.0000161970998612790     0.0000207001653771161     0.0000238575130617382     0.0000249956278883773 
    0.0000157861247965220     0.0000150030216200454     0.0000128411882591288     0.0000097924179371396     0.0000064789037415150     0.0000034650900043197     0.0000011398417620208     -0.0000002981406629057     -0.0000007801877652009     -0.0000002946384864154     0.0000011445664277520     0.0000034670307176251     0.0000064734665174794     0.0000097760330154253     0.0000128129418113648     0.0000149655591829189     0.0000157451795827595     0.0000149655544492504     0.0000128129328620949     0.0000097760208325450     0.0000064734524118574     0.0000034670161181602     0.0000011445526620994     -0.0000002946503396163     -0.0000007801969342301     -0.0000002981467040786     0.0000011398389209788     0.0000034650900043197     0.0000064789057900733     0.0000097924209365061     0.0000128411910548729     0.0000150030232758485     0.0000157861247965220 
    0.0000079042896311827     0.0000074230683190984     0.0000061182551759824     0.0000043495424635510     0.0000025602848253953     0.0000011398389209787     0.0000003583520098746     0.0000003889137824992     0.0000013711042833937     0.0000034512899952816     0.0000067565308362773     0.0000112958598446590     0.0000168240658289086     0.0000227426059274520     0.0000281267140234489     0.0000319275446953800     0.0000333024234585158     0.0000319275390099419     0.0000281267034346940     0.0000227425918777410     0.0000168240501550661     0.0000112958444123893     0.0000067565172103349     0.0000034512792698797     0.0000013710970761552     0.0000003889102873261     0.0000003583520098746     0.0000011398417620207     0.0000025602894414445     0.0000043495475361776     0.0000061182594069471     0.0000074230707031193     0.0000079042896311827 
    0.0000016578752834072     0.0000014256817220934     0.0000008352142710568     0.0000001530356184843     -0.0000003108496249578     -0.0000002981467040786     0.0000003889102873261     0.0000019500179234614     0.0000046468672067674     0.0000087956436663718     0.0000146693905900579     0.0000223247683410739     0.0000314017152315809     0.0000409849715831542     0.0000503710720979685     0.0000580496065721910     0.0000610181590384823     0.0000580496000351248     0.0000503710601349909     0.0000409849561847760     0.0000314016988119613     0.0000223247531768394     0.0000146693783794481     0.0000087956353718180     0.0000046468631444144     0.0000019500179234614     0.0000003889137824992     -0.0000002981406629057     -0.0000003108423212419     0.0000001530427367170     0.0000008352198570960     0.0000014256847751039     0.0000016578752834072 
    -0.0000030223322543746     -0.0000030458659350973     -0.0000030347504410187     -0.0000027919817777966     -0.0000021020213036367     -0.0000007801969342302     0.0000013710970761552     0.0000046468631444144     0.0000094686617406319     0.0000163044640446744     0.0000254928001560837     0.0000370232138676821     0.0000533742073779422     0.0000754114047775574     0.0000983687418009459     0.0001158520284676665     0.0001223954672549091     0.0001158520213372845     0.0000983687290213711     0.0000754113889178388     0.0000533741913930322     0.0000370232003267797     0.0000254927907230250     0.0000163044593835462     0.0000094686617406319     0.0000046468672067674     0.0000013711042833937     -0.0000007801877652009     -0.0000021020115672594     -0.0000027919729290413     -0.0000030347437683763     -0.0000030458623638849     -0.0000030223322543746 
    -0.0000063837305058405     -0.0000062247410805862     -0.0000056876282338041     -0.0000046307616606734     -0.0000028938931887503     -0.0000002946503396163     0.0000034512792698797     0.0000087956353718180     0.0000163044593835462     0.0000264658766493806     0.0000399436189442337     0.0000632314826542649     0.0000978732038669689     0.0001396139127349030     0.0001803344824689849     0.0002102301047377458     0.0002212369479301703     0.0002102300974549139     0.0001803344697584729     0.0001396138976956732     0.0000978731898499365     0.0000632314723028873     0.0000399436136666595     0.0000264658766493806     0.0000163044640446744     0.0000087956436663718     0.0000034512899952816     -0.0000002946384864154     -0.0000028938815737800     -0.0000046307516112402     -0.0000056876208770169     -0.0000062247372051280     -0.0000063837305058405 
    -0.0000087055073756217     -0.0000083800801086069     -0.0000073638360879661     -0.0000055564190237758     -0.0000028071945619770     0.0000011445526620994     0.0000067565172103349     0.0000146693783794480     0.0000254927907230250     0.0000399436136666596     0.0000667078208528409     0.0001099369714443922     0.0001674379664885199     0.0002321621420200246     0.0002927857074153578     0.0003362982129399436     0.0003521589632736356     0.0003362982061094946     0.0002927856959250004     0.0002321621293434592     0.0001674379561145709     0.0001099369657970445     0.0000667078208528409     0.0000399436189442337     0.0000254928001560837     0.0000146693905900579     0.0000067565308362773     0.0000011445664277521     -0.0000028071818492602     -0.0000055564084439983     -0.0000073638285265289     -0.0000083800761760493     -0.0000087055073756217 
    -0.0000102267699331168     -0.0000097470471851510     -0.0000082848493458261     -0.0000057614304067478     -0.0000019839802615921     0.0000034670161181602     0.0000112958444123893     0.0000223247531768394     0.0000370232003267797     0.0000632314723028873     0.0001099369657970446     0.0001768464858411025     0.0002594147746455213     0.0003481181635597088     0.0004289634922447527     0.0004861562511411727     0.0005068766237717523     0.0004861562454511446     0.0004289634831949729     0.0003481181547097021     0.0002594147692700195     0.0001768464858411025     0.0001099369714443922     0.0000632314826542649     0.0000370232138676821     0.0000223247683410739     0.0000112958598446591     0.0000034670307176251     -0.0000019839674003649     -0.0000057614200426759     -0.0000082848420854422     -0.0000097470434488506     -0.0000102267699331168 
    -0.0000111360169604542     -0.0000105160239633428     -0.0000086439082078112     -0.0000054382112754037     -0.0000006140673948662     0.0000064734524118574     0.0000168240501550661     0.0000314016988119613     0.0000533741913930322     0.0000978731898499366     0.0001674379561145710     0.0002594147692700195     0.0003671111421344319     0.0004791408335671653     0.0005794576339295720     0.0006498283703590611     0.0006752414619287777     0.0006498283663821964     0.0005794576282128150     0.0004791408293624739     0.0003671111421344319     0.0002594147746455212     0.0001674379664885199     0.0000978732038669688     0.0000533742073779422     0.0000314017152315808     0.0000168240658289085     0.0000064734665174794     -0.0000006140554297078     -0.0000054382018841858     -0.0000086439017352693     -0.0000105160206603186     -0.0000111360169604542 
    -0.0000115944468021620     -0.0000108542602700636     -0.0000086251239488315     -0.0000048004191427845     0.0000010313056612709     0.0000097760208325451     0.0000227425918777410     0.0000409849561847760     0.0000754113889178388     0.0001396138976956732     0.0002321621293434592     0.0003481181547097021     0.0004791408293624738     0.0006126243973952747     0.0007309426548555597     0.0008136119159118332     0.0008434320474056143     0.0008136119138113966     0.0007309426525193963     0.0006126243973952747     0.0004791408335671652     0.0003481181635597087     0.0002321621420200245     0.0001396139127349029     0.0000754114047775574     0.0000409849715831542     0.0000227426059274519     0.0000097760330154253     0.0000010313157001865     -0.0000048004114219623     -0.0000086251186927001     -0.0000108542576040954     -0.0000115944468021620 
    -0.0000117595855798419     -0.0000109268281217471     -0.0000084177801603894     -0.0000040888461451811     0.0000026031326244110     0.0000128129328620949     0.0000281267034346940     0.0000503710601349909     0.0000983687290213711     0.0001803344697584730     0.0002927856959250005     0.0004289634831949728     0.0005794576282128150     0.0007309426525193965     0.0008645572406264006     0.0009577975892551403     0.0009914293494984166     0.0009577975886087596     0.0008645572406264006     0.0007309426548555597     0.0005794576339295722     0.0004289634922447528     0.0002927857074153578     0.0001803344824689849     0.0000983687418009459     0.0000503710720979685     0.0000281267140234489     0.0000128129418113648     0.0000026031398505213     -0.0000040888406657813     -0.0000084177764610114     -0.0000109268262526396     -0.0000117595855798419 
    -0.0000117821431604926     -0.0000108909970423197     -0.0000082027333137508     -0.0000035414067215220     0.0000037362081875909     0.0000149655544492504     0.0000319275390099419     0.0000580496000351248     0.0001158520213372845     0.0002102300974549140     0.0003362982061094946     0.0004861562454511447     0.0006498283663821965     0.0008136119138113965     0.0009577975886087596     0.0010584049473893833     0.0010947037577383279     0.0010584049473893833     0.0009577975892551400     0.0008136119159118331     0.0006498283703590612     0.0004861562511411728     0.0003362982129399436     0.0002102301047377458     0.0001158520284676665     0.0000580496065721910     0.0000319275446953800     0.0000149655591829189     0.0000037362119645259     -0.0000035414038809807     -0.0000082027314048619     -0.0000108909960798034     -0.0000117821431604926 
    -0.0000117755281541641     -0.0000108644303177937     -0.0000081144070595389     -0.0000033367306004170     0.0000041492334312025     0.0000157451795827595     0.0000333024234585158     0.0000610181590384823     0.0001223954672549092     0.0002212369479301703     0.0003521589632736356     0.0005068766237717524     0.0006752414619287777     0.0008434320474056145     0.0009914293494984162     0.0010947037577383279     0.0011319698379147021     0.0010947037577383279     0.0009914293494984162     0.0008434320474056145     0.0006752414619287777     0.0005068766237717524     0.0003521589632736356     0.0002212369479301703     0.0001223954672549091     0.0000610181590384823     0.0000333024234585158     0.0000157451795827595     0.0000041492334312025     -0.0000033367306004169     -0.0000081144070595389     -0.0000108644303177936     -0.0000117755281541641 
    -0.0000117821431604926     -0.0000108909960798034     -0.0000082027314048620     -0.0000035414038809807     0.0000037362119645259     0.0000149655591829189     0.0000319275446953800     0.0000580496065721910     0.0001158520284676665     0.0002102301047377459     0.0003362982129399436     0.0004861562511411727     0.0006498283703590612     0.0008136119159118331     0.0009577975892551400     0.0010584049473893833     0.0010947037577383279     0.0010584049473893833     0.0009577975886087596     0.0008136119138113965     0.0006498283663821964     0.0004861562454511447     0.0003362982061094946     0.0002102300974549140     0.0001158520213372845     0.0000580496000351247     0.0000319275390099419     0.0000149655544492504     0.0000037362081875909     -0.0000035414067215220     -0.0000082027333137507     -0.0000108909970423197     -0.0000117821431604926 
    -0.0000117595855798419     -0.0000109268262526396     -0.0000084177764610114     -0.0000040888406657813     0.0000026031398505214     0.0000128129418113648     0.0000281267140234489     0.0000503710720979685     0.0000983687418009459     0.0001803344824689849     0.0002927857074153579     0.0004289634922447528     0.0005794576339295722     0.0007309426548555597     0.0008645572406264006     0.0009577975886087597     0.0009914293494984166     0.0009577975892551403     0.0008645572406264006     0.0007309426525193965     0.0005794576282128150     0.0004289634831949728     0.0002927856959250005     0.0001803344697584730     0.0000983687290213712     0.0000503710601349909     0.0000281267034346940     0.0000128129328620950     0.0000026031326244110     -0.0000040888461451811     -0.0000084177801603893     -0.0000109268281217471     -0.0000117595855798419 
    -0.0000115944468021620     -0.0000108542576040954     -0.0000086251186927001     -0.0000048004114219623     0.0000010313157001865     0.0000097760330154253     0.0000227426059274520     0.0000409849715831542     0.0000754114047775575     0.0001396139127349030     0.0002321621420200245     0.0003481181635597087     0.0004791408335671653     0.0006126243973952747     0.0007309426525193965     0.0008136119138113967     0.0008434320474056145     0.0008136119159118332     0.0007309426548555597     0.0006126243973952747     0.0004791408293624738     0.0003481181547097021     0.0002321621293434592     0.0001396138976956732     0.0000754113889178389     0.0000409849561847760     0.0000227425918777410     0.0000097760208325450     0.0000010313056612709     -0.0000048004191427845     -0.0000086251239488314     -0.0000108542602700637     -0.0000115944468021620 
    -0.0000111360169604542     -0.0000105160206603187     -0.0000086439017352693     -0.0000054382018841858     -0.0000006140554297078     0.0000064734665174794     0.0000168240658289086     0.0000314017152315808     0.0000533742073779422     0.0000978732038669688     0.0001674379664885199     0.0002594147746455212     0.0003671111421344319     0.0004791408293624739     0.0005794576282128150     0.0006498283663821964     0.0006752414619287777     0.0006498283703590611     0.0005794576339295720     0.0004791408335671653     0.0003671111421344319     0.0002594147692700195     0.0001674379561145709     0.0000978731898499366     0.0000533741913930322     0.0000314016988119613     0.0000168240501550661     0.0000064734524118574     -0.0000006140673948662     -0.0000054382112754037     -0.0000086439082078112     -0.0000105160239633428     -0.0000111360169604542 
    -0.0000102267699331168     -0.0000097470434488506     -0.0000082848420854422     -0.0000057614200426759     -0.0000019839674003649     0.0000034670307176251     0.0000112958598446590     0.0000223247683410739     0.0000370232138676821     0.0000632314826542649     0.0001099369714443922     0.0001768464858411025     0.0002594147692700196     0.0003481181547097021     0.0004289634831949729     0.0004861562454511446     0.0005068766237717524     0.0004861562511411727     0.0004289634922447528     0.0003481181635597088     0.0002594147746455213     0.0001768464858411025     0.0001099369657970446     0.0000632314723028873     0.0000370232003267797     0.0000223247531768394     0.0000112958444123893     0.0000034670161181602     -0.0000019839802615921     -0.0000057614304067478     -0.0000082848493458262     -0.0000097470471851511     -0.0000102267699331168 
    -0.0000087055073756217     -0.0000083800761760493     -0.0000073638285265289     -0.0000055564084439983     -0.0000028071818492602     0.0000011445664277521     0.0000067565308362773     0.0000146693905900578     0.0000254928001560837     0.0000399436189442337     0.0000667078208528409     0.0001099369657970446     0.0001674379561145710     0.0002321621293434592     0.0002927856959250005     0.0003362982061094946     0.0003521589632736356     0.0003362982129399437     0.0002927857074153578     0.0002321621420200246     0.0001674379664885199     0.0001099369714443922     0.0000667078208528409     0.0000399436136666596     0.0000254927907230250     0.0000146693783794481     0.0000067565172103350     0.0000011445526620994     -0.0000028071945619770     -0.0000055564190237758     -0.0000073638360879661     -0.0000083800801086070     -0.0000087055073756217 
    -0.0000063837305058405     -0.0000062247372051280     -0.0000056876208770169     -0.0000046307516112401     -0.0000028938815737799     -0.0000002946384864154     0.0000034512899952816     0.0000087956436663718     0.0000163044640446744     0.0000264658766493806     0.0000399436136666595     0.0000632314723028873     0.0000978731898499365     0.0001396138976956732     0.0001803344697584730     0.0002102300974549139     0.0002212369479301703     0.0002102301047377459     0.0001803344824689849     0.0001396139127349029     0.0000978732038669688     0.0000632314826542649     0.0000399436189442337     0.0000264658766493806     0.0000163044593835462     0.0000087956353718180     0.0000034512792698797     -0.0000002946503396163     -0.0000028938931887503     -0.0000046307616606734     -0.0000056876282338041     -0.0000062247410805862     -0.0000063837305058405 
    -0.0000030223322543745     -0.0000030458623638849     -0.0000030347437683762     -0.0000027919729290413     -0.0000021020115672594     -0.0000007801877652009     0.0000013711042833937     0.0000046468672067674     0.0000094686617406319     0.0000163044593835462     0.0000254927907230250     0.0000370232003267797     0.0000533741913930322     0.0000754113889178388     0.0000983687290213711     0.0001158520213372845     0.0001223954672549092     0.0001158520284676665     0.0000983687418009459     0.0000754114047775574     0.0000533742073779422     0.0000370232138676821     0.0000254928001560838     0.0000163044640446744     0.0000094686617406320     0.0000046468631444144     0.0000013710970761553     -0.0000007801969342301     -0.0000021020213036366     -0.0000027919817777966     -0.0000030347504410187     -0.0000030458659350973     -0.0000030223322543745 
    0.0000016578752834072     0.0000014256847751039     0.0000008352198570960     0.0000001530427367170     -0.0000003108423212420     -0.0000002981406629057     0.0000003889137824992     0.0000019500179234614     0.0000046468631444144     0.0000087956353718180     0.0000146693783794480     0.0000223247531768394     0.0000314016988119613     0.0000409849561847760     0.0000503710601349909     0.0000580496000351248     0.0000610181590384824     0.0000580496065721910     0.0000503710720979685     0.0000409849715831542     0.0000314017152315809     0.0000223247683410739     0.0000146693905900579     0.0000087956436663719     0.0000046468672067675     0.0000019500179234615     0.0000003889102873262     -0.0000002981467040785     -0.0000003108496249578     0.0000001530356184843     0.0000008352142710569     0.0000014256817220934     0.0000016578752834072 
    0.0000079042896311827     0.0000074230707031193     0.0000061182594069471     0.0000043495475361776     0.0000025602894414445     0.0000011398417620207     0.0000003583520098746     0.0000003889102873261     0.0000013710970761552     0.0000034512792698796     0.0000067565172103349     0.0000112958444123892     0.0000168240501550661     0.0000227425918777410     0.0000281267034346939     0.0000319275390099419     0.0000333024234585158     0.0000319275446953800     0.0000281267140234489     0.0000227426059274520     0.0000168240658289086     0.0000112958598446590     0.0000067565308362773     0.0000034512899952816     0.0000013711042833937     0.0000003889137824992     0.0000003583520098746     0.0000011398389209787     0.0000025602848253953     0.0000043495424635510     0.0000061182551759824     0.0000074230683190984     0.0000079042896311827 
    0.0000157861247965220     0.0000150030232758485     0.0000128411910548728     0.0000097924209365061     0.0000064789057900733     0.0000034650900043197     0.0000011398389209788     -0.0000002981467040786     -0.0000007801969342302     -0.0000002946503396163     0.0000011445526620994     0.0000034670161181602     0.0000064734524118574     0.0000097760208325450     0.0000128129328620949     0.0000149655544492504     0.0000157451795827595     0.0000149655591829190     0.0000128129418113648     0.0000097760330154253     0.0000064734665174794     0.0000034670307176251     0.0000011445664277520     -0.0000002946384864154     -0.0000007801877652009     -0.0000002981406629057     0.0000011398417620208     0.0000034650900043197     0.0000064789037415150     0.0000097924179371396     0.0000128411882591288     0.0000150030216200454     0.0000157861247965220 
    0.0000249956278883773     0.0000238575130617382     0.0000207001653771161     0.0000161970998612790     0.0000111995775571683     0.0000064789037415150     0.0000025602848253953     -0.0000003108496249578     -0.0000021020213036367     -0.0000028938931887503     -0.0000028071945619770     -0.0000019839802615921     -0.0000006140673948662     0.0000010313056612709     0.0000026031326244110     0.0000037362081875909     0.0000041492334312025     0.0000037362119645260     0.0000026031398505214     0.0000010313157001865     -0.0000006140554297078     -0.0000019839674003649     -0.0000028071818492602     -0.0000028938815737799     -0.0000021020115672593     -0.0000003108423212419     0.0000025602894414446     0.0000064789057900733     0.0000111995775571684     0.0000161970986427131     0.0000207001638793925     0.0000238575120852840     0.0000249956278883773 
    0.0000346795044478172     0.0000331571576103299     0.0000289346156615466     0.0000229085919416123     0.0000161970986427131     0.0000097924179371396     0.0000043495424635510     0.0000001530356184842     -0.0000027919817777966     -0.0000046307616606734     -0.0000055564190237758     -0.0000057614304067478     -0.0000054382112754036     -0.0000048004191427845     -0.0000040888461451811     -0.0000035414067215220     -0.0000033367306004170     -0.0000035414038809807     -0.0000040888406657813     -0.0000048004114219623     -0.0000054382018841857     -0.0000057614200426759     -0.0000055564084439982     -0.0000046307516112401     -0.0000027919729290413     0.0000001530427367170     0.0000043495475361776     0.0000097924209365061     0.0000161970998612790     0.0000229085919416123     0.0000289346151309075     0.0000331571571645965     0.0000346795044478172 
    0.0000434397635108812     0.0000415578705915511     0.0000363477312451750     0.0000289346151309075     0.0000207001638793925     0.0000128411882591288     0.0000061182551759824     0.0000008352142710568     -0.0000030347504410187     -0.0000056876282338041     -0.0000073638360879661     -0.0000082848493458262     -0.0000086439082078112     -0.0000086251239488315     -0.0000084177801603893     -0.0000082027333137507     -0.0000081144070595389     -0.0000082027314048619     -0.0000084177764610114     -0.0000086251186927001     -0.0000086439017352692     -0.0000082848420854422     -0.0000073638285265289     -0.0000056876208770169     -0.0000030347437683762     0.0000008352198570960     0.0000061182594069471     0.0000128411910548728     0.0000207001653771161     0.0000289346156615466     0.0000363477312451750     0.0000415578704688332     0.0000434397635108812 
    0.0000496228354024271     0.0000474800402402758     0.0000415578704688332     0.0000331571571645965     0.0000238575120852840     0.0000150030216200454     0.0000074230683190984     0.0000014256817220934     -0.0000030458659350974     -0.0000062247410805862     -0.0000083800801086070     -0.0000097470471851511     -0.0000105160239633427     -0.0000108542602700636     -0.0000109268281217471     -0.0000108909970423197     -0.0000108644303177937     -0.0000108909960798033     -0.0000109268262526396     -0.0000108542576040954     -0.0000105160206603186     -0.0000097470434488506     -0.0000083800761760493     -0.0000062247372051280     -0.0000030458623638849     0.0000014256847751039     0.0000074230707031194     0.0000150030232758485     0.0000238575130617382     0.0000331571576103299     0.0000415578705915511     0.0000474800402402758     0.0000496228354024271 
    0.0000518615494909898     0.0000496228354024271     0.0000434397635108812     0.0000346795044478172     0.0000249956278883773     0.0000157861247965220     0.0000079042896311827     0.0000016578752834072     -0.0000030223322543746     -0.0000063837305058405     -0.0000087055073756217     -0.0000102267699331168     -0.0000111360169604542     -0.0000115944468021620     -0.0000117595855798419     -0.0000117821431604926     -0.0000117755281541642     -0.0000117821431604926     -0.0000117595855798419     -0.0000115944468021620     -0.0000111360169604542     -0.0000102267699331168     -0.0000087055073756217     -0.0000063837305058405     -0.0000030223322543745     0.0000016578752834072     0.0000079042896311827     0.0000157861247965220     0.0000249956278883773     0.0000346795044478172     0.0000434397635108812     0.0000496228354024271     0.0000518615494909898 
    0.0000248293292432563     0.0000235792271015995     0.0000201106762001318     0.0000151500289041387     0.0000095864506846720     0.0000041910217922517     -0.0000005348862765101     -0.0000043623381854628     -0.0000072526533381205     -0.0000092671624677291     -0.0000105121683525804     -0.0000111221688027427     -0.0000112595939819999     -0.0000111073637915165     -0.0000108461694592720     -0.0000106253564561680     -0.0000105408640071569     -0.0000106253564561680     -0.0000108461694592720     -0.0000111073637915165     -0.0000112595939819999     -0.0000111221688027427     -0.0000105121683525804     -0.0000092671624677291     -0.0000072526533381205     -0.0000043623381854628     -0.0000005348862765101     0.0000041910217922517     0.0000095864506846720     0.0000151500289041386     0.0000201106762001318     0.0000235792271015995     0.0000248293292432563 
    0.0000235792271015995     0.0000223841493841087     0.0000190646784245971     0.0000143085187981772     0.0000089640578890638     0.0000037761937291172     -0.0000007611925693625     -0.0000044141478720240     -0.0000071355077568796     -0.0000089811061333565     -0.0000100569394441820     -0.0000105015845231932     -0.0000104844526973604     -0.0000101972781843864     -0.0000098303133300491     -0.0000095417352671773     -0.0000094338684870793     -0.0000095417361325277     -0.0000098303149903851     -0.0000101972805170194     -0.0000104844555481254     -0.0000105015877160173     -0.0000100569427802136     -0.0000089811093928477     -0.0000071355107163570     -0.0000044141503387056     -0.0000007611944226057     0.0000037761925074204     0.0000089640572127571     0.0000143085185097807     0.0000190646783500398     0.0000223841493841087     0.0000235792271015995 
    0.0000201106762001318     0.0000190646783500398     0.0000161517287070416     0.0000119601941819953     0.0000072314152610041     0.0000026383976153322     -0.0000013497412289763     -0.0000044910219288598     -0.0000067194037706067     -0.0000080764772623020     -0.0000086642923729830     -0.0000086276412903092     -0.0000081517125144618     -0.0000074535923380113     -0.0000067562649663944     -0.0000062518217533970     -0.0000060687036897927     -0.0000062518234643686     -0.0000067562682431852     -0.0000074535969246000     -0.0000081517180861145     -0.0000086276474785772     -0.0000086642987728652     -0.0000080764834418281     -0.0000067194093042536     -0.0000044910264604161     -0.0000013497445474039     0.0000026383955205435     0.0000072314141992308     0.0000119601938275741     0.0000161517287070416     0.0000190646784245971     0.0000201106762001318 
    0.0000151500289041386     0.0000143085185097807     0.0000119601938275741     0.0000085719180298511     0.0000047481095340058     0.0000010606922877574     -0.0000020679497295393     -0.0000043997310914369     -0.0000058509461655649     -0.0000064400632106300     -0.0000062500019997763     -0.0000054186473319304     -0.0000041466971437348     -0.0000026973680190603     -0.0000013682908644913     -0.0000004376317941121     -0.0000001034896269149     -0.0000004376343405979     -0.0000013682957200151     -0.0000026973747598838     -0.0000041467052299798     -0.0000054186561635524     -0.0000062500109501018     -0.0000064400716537124     -0.0000058509535217484     -0.0000043997369043254     -0.0000020679537604016     0.0000010606899908441     0.0000047481086415743     0.0000085719180298511     0.0000119601941819953     0.0000143085187981772     0.0000151500289041386 
    0.0000095864506846720     0.0000089640572127571     0.0000072314141992308     0.0000047481086415743     0.0000019877936107492     -0.0000005896539125095     -0.0000026313107435630     -0.0000039217988720883     -0.0000043600573877562     -0.0000039192605213507     -0.0000026281379270527     -0.0000005891656805115     0.0000019818346501093     0.0000047328268044292     0.0000072061426322369     0.0000089310633965537     0.0000095505446948283     0.0000089310599835817     0.0000072061361758167     0.0000047328179673292     0.0000019818242701183     -0.0000005891767071088     -0.0000026281487321403     -0.0000039192703201503     -0.0000043600655254659     -0.0000039218048903525     -0.0000026313144681817     -0.0000005896555198682     0.0000019877936107492     0.0000047481095340058     0.0000072314152610041     0.0000089640578890638     0.0000095864506846720 
    0.0000041910217922517     0.0000037761925074203     0.0000026383955205435     0.0000010606899908441     -0.0000005896555198683     -0.0000019620569239273     -0.0000027846688441770     -0.0000028681551305164     -0.0000020719006751723     -0.0000002773186302700     0.0000025938034405746     0.0000065068746532112     0.0000112156157466565     0.0000161961529033857     0.0000206809820229778     0.0000238241657354611     0.0000249569242382884     0.0000238241613849388     0.0000206809738861755     0.0000161961419888596     0.0000112156033040758     0.0000065068619520743     0.0000025937915997570     -0.0000002773287282906     -0.0000020719084095219     -0.0000028681601639374     -0.0000027846711731832     -0.0000019620569239273     -0.0000005896539125095     0.0000010606922877574     0.0000026383976153322     0.0000037761937291171     0.0000041910217922517 
    -0.0000005348862765101     -0.0000007611944226057     -0.0000013497445474039     -0.0000020679537604016     -0.0000026313144681818     -0.0000027846711731832     -0.0000023225908962363     -0.0000010498480032531     0.0000012671746097869     0.0000049011990031240     0.0000100869986303021     0.0000168709988067172     0.0000249299405805011     0.0000334442557937667     0.0000411370112424784     0.0000465503343725153     0.0000485061763034094     0.0000465503290267242     0.0000411370013830868     0.0000334442428939004     0.0000249299264160379     0.0000168709850782508     0.0000100869866828190     0.0000049011897210831     0.0000012671684492835     -0.0000010498509529619     -0.0000023225908962363     -0.0000027846688441770     -0.0000026313107435630     -0.0000020679497295393     -0.0000013497412289763     -0.0000007611925693625     -0.0000005348862765101 
    -0.0000043623381854628     -0.0000044141503387056     -0.0000044910264604161     -0.0000043997369043254     -0.0000039218048903525     -0.0000028681601639374     -0.0000010498509529619     0.0000018008956736127     0.0000060756599965687     0.0000122401256812958     0.0000206799383350206     0.0000314692800834093     0.0000441717136892100     0.0000603735086433979     0.0000780894055419594     0.0000919220448613411     0.0000971552782993832     0.0000919220385696943     0.0000780893941214526     0.0000603734941229421     0.0000441716984372612     0.0000314692662286595     0.0000206799273669164     0.0000122401183546578     0.0000060756564656840     0.0000018008956736127     -0.0000010498480032531     -0.0000028681551305164     -0.0000039217988720883     -0.0000043997310914369     -0.0000044910219288598     -0.0000044141478720240     -0.0000043623381854628 
    -0.0000072526533381205     -0.0000071355107163571     -0.0000067194093042536     -0.0000058509535217484     -0.0000043600655254660     -0.0000020719084095219     0.0000012671684492834     0.0000060756564656839     0.0000129315194459776     0.0000224313403719538     0.0000349549109853240     0.0000534765988919035     0.0000827676948691890     0.0001193230780395641     0.0001556909868099714     0.0001826738426682507     0.0001926540595948235     0.0001826738356759583     0.0001556909743510953     0.0001193230627240026     0.0000827676796293106     0.0000534765861836149     0.0000349549022909244     0.0000224313361592266     0.0000129315194459776     0.0000060756599965687     0.0000012671746097869     -0.0000020719006751723     -0.0000043600573877562     -0.0000058509461655650     -0.0000067194037706067     -0.0000071355077568796     -0.0000072526533381205 
    -0.0000092671624677292     -0.0000089811093928478     -0.0000080764834418282     -0.0000064400716537125     -0.0000039192703201503     -0.0000002773287282906     0.0000049011897210831     0.0000122401183546577     0.0000224313361592266     0.0000359415475555796     0.0000588933504202246     0.0000980441510043838     0.0001517110363793003     0.0002131842987452692     0.0002713317825712451     0.0003132796336816260     0.0003286022994377889     0.0003132796264654597     0.0002713317700148761     0.0002131842839727412     0.0001517110227358796     0.0000980441410604090     0.0000588933454371481     0.0000359415475555796     0.0000224313403719537     0.0000122401256812957     0.0000049011990031240     -0.0000002773186302700     -0.0000039192605213507     -0.0000064400632106300     -0.0000080764772623020     -0.0000089811061333566     -0.0000092671624677292 
    -0.0000105121683525804     -0.0000100569427802136     -0.0000086642987728651     -0.0000062500109501018     -0.0000026281487321402     0.0000025937915997570     0.0000100869866828191     0.0000206799273669164     0.0000349549022909244     0.0000588933454371481     0.0001030572711618149     0.0001676861367713931     0.0002484958795648305     0.0003359843624090203     0.0004160458879823430     0.0004727865387507315     0.0004933560155536359     0.0004727865319797047     0.0004160458765902446     0.0003359843498559139     0.0002484958693355023     0.0001676861312521155     0.0001030572711618148     0.0000588933504202246     0.0000349549109853240     0.0000206799383350206     0.0000100869986303021     0.0000025938034405746     -0.0000026281379270527     -0.0000062500019997763     -0.0000086642923729829     -0.0000100569394441820     -0.0000105121683525804 
    -0.0000111221688027427     -0.0000105015877160174     -0.0000086276474785772     -0.0000054186561635524     -0.0000005891767071088     0.0000065068619520743     0.0000168709850782508     0.0000314692662286595     0.0000534765861836149     0.0000980441410604091     0.0001676861312521156     0.0002597151367703271     0.0003674140463278756     0.0004793934407923593     0.0005796293176167559     0.0006499270346161437     0.0006753109311934143     0.0006499270290219563     0.0005796293086914944     0.0004793934320348684     0.0003674140410023510     0.0002597151367703270     0.0001676861367713931     0.0000980441510043838     0.0000534765988919035     0.0000314692800834093     0.0000168709988067172     0.0000065068746532112     -0.0000005891656805115     -0.0000054186473319304     -0.0000086276412903092     -0.0000105015845231932     -0.0000111221688027427 
    -0.0000112595939819999     -0.0000104844555481254     -0.0000081517180861146     -0.0000041467052299798     0.0000019818242701182     0.0000112156033040757     0.0000249299264160379     0.0000441716984372612     0.0000827676796293106     0.0001517110227358797     0.0002484958693355023     0.0003674140410023510     0.0004999955548907745     0.0006340624885649357     0.0007525457348807931     0.0008352842562074408     0.0008651339557451574     0.0008352842523500925     0.0007525457293053260     0.0006340624844344229     0.0004999955548907745     0.0003674140463278756     0.0002484958795648305     0.0001517110363793003     0.0000827676948691890     0.0000441717136892100     0.0000249299405805011     0.0000112156157466565     0.0000019818346501093     -0.0000041466971437348     -0.0000081517125144619     -0.0000104844526973605     -0.0000112595939819999 
    -0.0000111073637915164     -0.0000101972805170194     -0.0000074535969246000     -0.0000026973747598838     0.0000047328179673292     0.0000161961419888596     0.0000334442428939005     0.0000603734941229422     0.0001193230627240025     0.0002131842839727412     0.0003359843498559139     0.0004793934320348683     0.0006340624844344229     0.0007878709827584681     0.0009231040167417951     0.0010175625686745828     0.0010516798217067502     0.0010175625666670313     0.0009231040144931801     0.0007878709827584681     0.0006340624885649356     0.0004793934407923593     0.0003359843624090203     0.0002131842987452692     0.0001193230780395641     0.0000603735086433978     0.0000334442557937667     0.0000161961529033857     0.0000047328268044292     -0.0000026973680190603     -0.0000074535923380113     -0.0000101972781843863     -0.0000111073637915164 
    -0.0000108461694592720     -0.0000098303149903851     -0.0000067562682431852     -0.0000013682957200151     0.0000072061361758167     0.0000206809738861755     0.0000411370013830868     0.0000780893941214526     0.0001556909743510953     0.0002713317700148761     0.0004160458765902448     0.0005796293086914943     0.0007525457293053258     0.0009231040144931801     0.0010730039271835627     0.0011779516892187832     0.0012159267108545384     0.0011779516886086929     0.0010730039271835629     0.0009231040167417951     0.0007525457348807931     0.0005796293176167559     0.0004160458879823430     0.0002713317825712450     0.0001556909868099713     0.0000780894055419593     0.0000411370112424784     0.0000206809820229778     0.0000072061426322369     -0.0000013682908644914     -0.0000067562649663944     -0.0000098303133300491     -0.0000108461694592720 
    -0.0000106253564561681     -0.0000095417361325278     -0.0000062518234643687     -0.0000004376343405980     0.0000089310599835817     0.0000238241613849388     0.0000465503290267242     0.0000919220385696943     0.0001826738356759583     0.0003132796264654597     0.0004727865319797047     0.0006499270290219565     0.0008352842523500924     0.0010175625666670313     0.0011779516886086931     0.0012904910229901852     0.0013312709215197518     0.0012904910229901852     0.0011779516892187830     0.0010175625686745828     0.0008352842562074408     0.0006499270346161437     0.0004727865387507314     0.0003132796336816260     0.0001826738426682506     0.0000919220448613410     0.0000465503343725153     0.0000238241657354611     0.0000089310633965537     -0.0000004376317941121     -0.0000062518217533971     -0.0000095417352671774     -0.0000106253564561681 
    -0.0000105408640071569     -0.0000094338684870794     -0.0000060687036897928     -0.0000001034896269149     0.0000095505446948282     0.0000249569242382883     0.0000485061763034094     0.0000971552782993832     0.0001926540595948235     0.0003286022994377889     0.0004933560155536361     0.0006753109311934143     0.0008651339557451574     0.0010516798217067502     0.0012159267108545384     0.0013312709215197514     0.0013730886589679815     0.0013312709215197514     0.0012159267108545384     0.0010516798217067502     0.0008651339557451574     0.0006753109311934143     0.0004933560155536361     0.0003286022994377889     0.0001926540595948234     0.0000971552782993832     0.0000485061763034094     0.0000249569242382883     0.0000095505446948283     -0.0000001034896269149     -0.0000060687036897928     -0.0000094338684870793     -0.0000105408640071569 
    -0.0000106253564561681     -0.0000095417352671774     -0.0000062518217533970     -0.0000004376317941122     0.0000089310633965537     0.0000238241657354611     0.0000465503343725154     0.0000919220448613410     0.0001826738426682507     0.0003132796336816260     0.0004727865387507315     0.0006499270346161437     0.0008352842562074408     0.0010175625686745828     0.0011779516892187830     0.0012904910229901852     0.0013312709215197518     0.0012904910229901852     0.0011779516886086931     0.0010175625666670313     0.0008352842523500924     0.0006499270290219565     0.0004727865319797047     0.0003132796264654597     0.0001826738356759582     0.0000919220385696943     0.0000465503290267242     0.0000238241613849388     0.0000089310599835817     -0.0000004376343405979     -0.0000062518234643686     -0.0000095417361325278     -0.0000106253564561681 
    -0.0000108461694592720     -0.0000098303133300491     -0.0000067562649663944     -0.0000013682908644914     0.0000072061426322369     0.0000206809820229778     0.0000411370112424785     0.0000780894055419593     0.0001556909868099714     0.0002713317825712451     0.0004160458879823430     0.0005796293176167559     0.0007525457348807931     0.0009231040167417951     0.0010730039271835627     0.0011779516886086929     0.0012159267108545384     0.0011779516892187832     0.0010730039271835627     0.0009231040144931801     0.0007525457293053258     0.0005796293086914943     0.0004160458765902448     0.0002713317700148761     0.0001556909743510953     0.0000780893941214526     0.0000411370013830868     0.0000206809738861755     0.0000072061361758167     -0.0000013682957200151     -0.0000067562682431853     -0.0000098303149903851     -0.0000108461694592720 
    -0.0000111073637915165     -0.0000101972781843864     -0.0000074535923380114     -0.0000026973680190603     0.0000047328268044292     0.0000161961529033857     0.0000334442557937667     0.0000603735086433979     0.0001193230780395641     0.0002131842987452692     0.0003359843624090204     0.0004793934407923593     0.0006340624885649356     0.0007878709827584681     0.0009231040144931801     0.0010175625666670313     0.0010516798217067502     0.0010175625686745830     0.0009231040167417951     0.0007878709827584681     0.0006340624844344229     0.0004793934320348684     0.0003359843498559139     0.0002131842839727412     0.0001193230627240025     0.0000603734941229421     0.0000334442428939004     0.0000161961419888596     0.0000047328179673292     -0.0000026973747598838     -0.0000074535969246000     -0.0000101972805170194     -0.0000111073637915165 
    -0.0000112595939819999     -0.0000104844526973605     -0.0000081517125144619     -0.0000041466971437348     0.0000019818346501093     0.0000112156157466565     0.0000249299405805011     0.0000441717136892100     0.0000827676948691890     0.0001517110363793004     0.0002484958795648305     0.0003674140463278756     0.0004999955548907745     0.0006340624844344229     0.0007525457293053262     0.0008352842523500925     0.0008651339557451574     0.0008352842562074408     0.0007525457348807931     0.0006340624885649357     0.0004999955548907745     0.0003674140410023510     0.0002484958693355024     0.0001517110227358797     0.0000827676796293106     0.0000441716984372611     0.0000249299264160379     0.0000112156033040757     0.0000019818242701183     -0.0000041467052299798     -0.0000081517180861146     -0.0000104844555481254     -0.0000112595939819999 
    -0.0000111221688027427     -0.0000105015845231932     -0.0000086276412903092     -0.0000054186473319304     -0.0000005891656805115     0.0000065068746532112     0.0000168709988067172     0.0000314692800834093     0.0000534765988919035     0.0000980441510043838     0.0001676861367713931     0.0002597151367703270     0.0003674140410023510     0.0004793934320348684     0.0005796293086914944     0.0006499270290219563     0.0006753109311934143     0.0006499270346161437     0.0005796293176167558     0.0004793934407923593     0.0003674140463278756     0.0002597151367703270     0.0001676861312521156     0.0000980441410604091     0.0000534765861836149     0.0000314692662286595     0.0000168709850782508     0.0000065068619520743     -0.0000005891767071088     -0.0000054186561635524     -0.0000086276474785773     -0.0000105015877160174     -0.0000111221688027427 
    -0.0000105121683525804     -0.0000100569394441820     -0.0000086642923729830     -0.0000062500019997763     -0.0000026281379270527     0.0000025938034405746     0.0000100869986303021     0.0000206799383350206     0.0000349549109853240     0.0000588933504202246     0.0001030572711618149     0.0001676861312521156     0.0002484958693355023     0.0003359843498559139     0.0004160458765902447     0.0004727865319797048     0.0004933560155536359     0.0004727865387507315     0.0004160458879823430     0.0003359843624090204     0.0002484958795648305     0.0001676861367713931     0.0001030572711618149     0.0000588933454371481     0.0000349549022909244     0.0000206799273669164     0.0000100869866828191     0.0000025937915997570     -0.0000026281487321403     -0.0000062500109501019     -0.0000086642987728652     -0.0000100569427802137     -0.0000105121683525804 
    -0.0000092671624677292     -0.0000089811061333566     -0.0000080764772623020     -0.0000064400632106300     -0.0000039192605213507     -0.0000002773186302700     0.0000049011990031240     0.0000122401256812958     0.0000224313403719538     0.0000359415475555796     0.0000588933454371481     0.0000980441410604091     0.0001517110227358796     0.0002131842839727412     0.0002713317700148761     0.0003132796264654597     0.0003286022994377889     0.0003132796336816260     0.0002713317825712451     0.0002131842987452692     0.0001517110363793003     0.0000980441510043838     0.0000588933504202246     0.0000359415475555796     0.0000224313361592266     0.0000122401183546577     0.0000049011897210831     -0.0000002773287282906     -0.0000039192703201503     -0.0000064400716537125     -0.0000080764834418281     -0.0000089811093928478     -0.0000092671624677292 
    -0.0000072526533381205     -0.0000071355077568796     -0.0000067194037706066     -0.0000058509461655649     -0.0000043600573877562     -0.0000020719006751723     0.0000012671746097868     0.0000060756599965687     0.0000129315194459776     0.0000224313361592266     0.0000349549022909244     0.0000534765861836149     0.0000827676796293106     0.0001193230627240025     0.0001556909743510953     0.0001826738356759582     0.0001926540595948235     0.0001826738426682507     0.0001556909868099713     0.0001193230780395641     0.0000827676948691890     0.0000534765988919035     0.0000349549109853240     0.0000224313403719538     0.0000129315194459776     0.0000060756564656840     0.0000012671684492835     -0.0000020719084095219     -0.0000043600655254659     -0.0000058509535217484     -0.0000067194093042535     -0.0000071355107163570     -0.0000072526533381205 
    -0.0000043623381854628     -0.0000044141478720240     -0.0000044910219288598     -0.0000043997310914369     -0.0000039217988720883     -0.0000028681551305164     -0.0000010498480032531     0.0000018008956736127     0.0000060756564656840     0.0000122401183546577     0.0000206799273669164     0.0000314692662286595     0.0000441716984372612     0.0000603734941229421     0.0000780893941214526     0.0000919220385696943     0.0000971552782993832     0.0000919220448613410     0.0000780894055419594     0.0000603735086433979     0.0000441717136892100     0.0000314692800834093     0.0000206799383350206     0.0000122401256812958     0.0000060756599965687     0.0000018008956736128     -0.0000010498509529619     -0.0000028681601639373     -0.0000039218048903525     -0.0000043997369043254     -0.0000044910264604161     -0.0000044141503387056     -0.0000043623381854628 
    -0.0000005348862765101     -0.0000007611925693625     -0.0000013497412289763     -0.0000020679497295393     -0.0000026313107435630     -0.0000027846688441770     -0.0000023225908962363     -0.0000010498509529619     0.0000012671684492835     0.0000049011897210831     0.0000100869866828190     0.0000168709850782508     0.0000249299264160379     0.0000334442428939004     0.0000411370013830868     0.0000465503290267242     0.0000485061763034094     0.0000465503343725153     0.0000411370112424785     0.0000334442557937667     0.0000249299405805011     0.0000168709988067172     0.0000100869986303021     0.0000049011990031241     0.0000012671746097869     -0.0000010498480032531     -0.0000023225908962363     -0.0000027846711731832     -0.0000026313144681818     -0.0000020679537604016     -0.0000013497445474039     -0.0000007611944226057     -0.0000005348862765101 
    0.0000041910217922517     0.0000037761937291171     0.0000026383976153322     0.0000010606922877574     -0.0000005896539125095     -0.0000019620569239273     -0.0000027846711731832     -0.0000028681601639374     -0.0000020719084095220     -0.0000002773287282906     0.0000025937915997570     0.0000065068619520743     0.0000112156033040757     0.0000161961419888596     0.0000206809738861755     0.0000238241613849388     0.0000249569242382884     0.0000238241657354611     0.0000206809820229778     0.0000161961529033857     0.0000112156157466565     0.0000065068746532112     0.0000025938034405746     -0.0000002773186302700     -0.0000020719006751723     -0.0000028681551305164     -0.0000027846688441770     -0.0000019620569239273     -0.0000005896555198682     0.0000010606899908441     0.0000026383955205435     0.0000037761925074203     0.0000041910217922517 
    0.0000095864506846720     0.0000089640578890638     0.0000072314152610041     0.0000047481095340058     0.0000019877936107492     -0.0000005896555198682     -0.0000026313144681818     -0.0000039218048903525     -0.0000043600655254660     -0.0000039192703201503     -0.0000026281487321403     -0.0000005891767071088     0.0000019818242701183     0.0000047328179673292     0.0000072061361758167     0.0000089310599835817     0.0000095505446948283     0.0000089310633965537     0.0000072061426322369     0.0000047328268044292     0.0000019818346501093     -0.0000005891656805115     -0.0000026281379270527     -0.0000039192605213507     -0.0000043600573877562     -0.0000039217988720883     -0.0000026313107435629     -0.0000005896539125095     0.0000019877936107492     0.0000047481086415743     0.0000072314141992308     0.0000089640572127571     0.0000095864506846720 
    0.0000151500289041386     0.0000143085187981772     0.0000119601941819953     0.0000085719180298511     0.0000047481086415743     0.0000010606899908441     -0.0000020679537604016     -0.0000043997369043254     -0.0000058509535217484     -0.0000064400716537125     -0.0000062500109501019     -0.0000054186561635525     -0.0000041467052299798     -0.0000026973747598838     -0.0000013682957200151     -0.0000004376343405979     -0.0000001034896269149     -0.0000004376317941121     -0.0000013682908644913     -0.0000026973680190603     -0.0000041466971437348     -0.0000054186473319304     -0.0000062500019997763     -0.0000064400632106300     -0.0000058509461655649     -0.0000043997310914369     -0.0000020679497295393     0.0000010606922877574     0.0000047481095340058     0.0000085719180298511     0.0000119601938275741     0.0000143085185097807     0.0000151500289041386 
    0.0000201106762001318     0.0000190646784245971     0.0000161517287070416     0.0000119601938275741     0.0000072314141992308     0.0000026383955205435     -0.0000013497445474039     -0.0000044910264604161     -0.0000067194093042536     -0.0000080764834418282     -0.0000086642987728652     -0.0000086276474785773     -0.0000081517180861146     -0.0000074535969246000     -0.0000067562682431853     -0.0000062518234643686     -0.0000060687036897927     -0.0000062518217533970     -0.0000067562649663944     -0.0000074535923380114     -0.0000081517125144618     -0.0000086276412903092     -0.0000086642923729830     -0.0000080764772623020     -0.0000067194037706067     -0.0000044910219288598     -0.0000013497412289763     0.0000026383976153322     0.0000072314152610041     0.0000119601941819953     0.0000161517287070416     0.0000190646783500398     0.0000201106762001318 
    0.0000235792271015995     0.0000223841493841087     0.0000190646783500398     0.0000143085185097807     0.0000089640572127571     0.0000037761925074204     -0.0000007611944226057     -0.0000044141503387056     -0.0000071355107163571     -0.0000089811093928477     -0.0000100569427802137     -0.0000105015877160174     -0.0000104844555481254     -0.0000101972805170194     -0.0000098303149903851     -0.0000095417361325277     -0.0000094338684870793     -0.0000095417352671773     -0.0000098303133300491     -0.0000101972781843863     -0.0000104844526973604     -0.0000105015845231932     -0.0000100569394441820     -0.0000089811061333565     -0.0000071355077568796     -0.0000044141478720240     -0.0000007611925693625     0.0000037761937291172     0.0000089640578890638     0.0000143085187981772     0.0000190646784245971     0.0000223841493841087     0.0000235792271015995 
    0.0000248293292432563     0.0000235792271015995     0.0000201106762001318     0.0000151500289041387     0.0000095864506846720     0.0000041910217922517     -0.0000005348862765101     -0.0000043623381854628     -0.0000072526533381205     -0.0000092671624677291     -0.0000105121683525804     -0.0000111221688027427     -0.0000112595939819999     -0.0000111073637915165     -0.0000108461694592720     -0.0000106253564561680     -0.0000105408640071569     -0.0000106253564561680     -0.0000108461694592720     -0.0000111073637915165     -0.0000112595939819999     -0.0000111221688027427     -0.0000105121683525804     -0.0000092671624677291     -0.0000072526533381205     -0.0000043623381854628     -0.0000005348862765101     0.0000041910217922517     0.0000095864506846720     0.0000151500289041386     0.0000201106762001318     0.0000235792271015995     0.0000248293292432563 
    0.0000087018883231274     0.0000079988519728538     0.0000060344360851096     0.0000031865350299800     -0.0000000684278641897     -0.0000032933512261089     -0.0000061697736378500     -0.0000085068274768241     -0.0000102108982099091     -0.0000112560347467615     -0.0000116754401231248     -0.0000115674184338216     -0.0000110938046189854     -0.0000104548160954908     -0.0000098460915645677     -0.0000094200979962845     -0.0000092682064010082     -0.0000094200979962845     -0.0000098460915645677     -0.0000104548160954908     -0.0000110938046189854     -0.0000115674184338216     -0.0000116754401231248     -0.0000112560347467615     -0.0000102108982099092     -0.0000085068274768241     -0.0000061697736378500     -0.0000032933512261089     -0.0000000684278641897     0.0000031865350299801     0.0000060344360851096     0.0000079988519728538     0.0000087018883231274 
    0.0000079988519728538     0.0000073277844265727     0.0000054498852589599     0.0000027209785347360     -0.0000004040113323353     -0.0000034987239792621     -0.0000062435897519211     -0.0000084407881013389     -0.0000099911329762019     -0.0000108685489771057     -0.0000111114020648543     -0.0000108259539967154     -0.0000101830106187642     -0.0000093928920208164     -0.0000086629326271078     -0.0000081577303961082     -0.0000079782129507702     -0.0000081577311138412     -0.0000086629339887423     -0.0000093928939062538     -0.0000101830128926227     -0.0000108259565196140     -0.0000111114046847061     -0.0000108685515202575     -0.0000099911352586293     -0.0000084407899638444     -0.0000062435911041456     -0.0000034987248275276     -0.0000004040117720706     0.0000027209783614593     0.0000054498852177131     0.0000073277844265727     0.0000079988519728538 
    0.0000060344360851096     0.0000054498852177131     0.0000038087419812783     0.0000014125415938022     -0.0000013384160485060     -0.0000040478280853535     -0.0000063979180064395     -0.0000081779366542765     -0.0000092774326292367     -0.0000096693206898569     -0.0000094007488622970     -0.0000085928339245911     -0.0000074370904391905     -0.0000061743677700736     -0.0000050542198569578     -0.0000042887504756995     -0.0000040174902885808     -0.0000042887518918669     -0.0000050542225391742     -0.0000061743714710211     -0.0000074370948759350     -0.0000085928388060223     -0.0000094007538800694     -0.0000096693255064814     -0.0000092774368993015     -0.0000081779400876066     -0.0000063979204472545     -0.0000040478295617711     -0.0000013384167562610     0.0000014125413726073     0.0000038087419812783     0.0000054498852589599     0.0000060344360851096 
    0.0000031865350299800     0.0000027209783614593     0.0000014125413726073     -0.0000004969121878966     -0.0000026720961810065     -0.0000047609567295140     -0.0000064619775646100     -0.0000075617506083966     -0.0000079402212313785     -0.0000075599931129866     -0.0000064598413975876     -0.0000047608322855300     -0.0000026766756469285     -0.0000005082393121120     0.0000013940078968856     0.0000026968812436401     0.0000031603407182415     0.0000026968791349095     0.0000013940039190291     -0.0000005082447575312     -0.0000026766820929289     -0.0000047608392563624     -0.0000064598484163611     -0.0000075599996970376     -0.0000079402269197701     -0.0000075617550374695     -0.0000064619805641469     -0.0000047609583821944     -0.0000026720967960102     -0.0000004969121878966     0.0000014125415938022     0.0000027209785347359     0.0000031865350299800 
    -0.0000000684278641897     -0.0000004040117720706     -0.0000013384167562610     -0.0000026720967960102     -0.0000041252283718317     -0.0000053989706235453     -0.0000062297229910940     -0.0000064172892695112     -0.0000058250184644709     -0.0000043716910099422     -0.0000020406460387765     0.0000010829900488474     0.0000047607197620431     0.0000085713238668513     0.0000119457467557106     0.0000142834455248162     0.0000151209593966399     0.0000142834426802334     0.0000119457414286351     0.0000085713166736482     0.0000047607114263085     0.0000010829812901545     -0.0000020406545542255     -0.0000043716986830725     -0.0000058250247878448     -0.0000064172938908833     -0.0000062297258003105     -0.0000053989718061792     -0.0000041252283718318     -0.0000026720961810065     -0.0000013384160485060     -0.0000004040113323353     -0.0000000684278641897 
    -0.0000032933512261089     -0.0000034987248275276     -0.0000040478295617711     -0.0000047609583821944     -0.0000053989718061791     -0.0000057202171975551     -0.0000055108591499058     -0.0000045790998885022     -0.0000027338931547591     0.0000002156672901961     0.0000044120725963528     0.0000098475717673948     0.0000162363553039282     0.0000229250031674959     0.0000289262601540665     0.0000331294271751360     0.0000346444199419852     0.0000331294235013086     0.0000289262533448559     0.0000229249941484259     0.0000162363451602411     0.0000098475615389351     0.0000044120631565087     0.0000002156593082766     -0.0000027338992158015     -0.0000045791037914630     -0.0000055108609309187     -0.0000057202171975551     -0.0000053989706235453     -0.0000047609567295140     -0.0000040478280853535     -0.0000034987239792621     -0.0000032933512261089 
    -0.0000061697736378501     -0.0000062435911041456     -0.0000063979204472546     -0.0000064619805641469     -0.0000062297258003104     -0.0000055108609309187     -0.0000041224723998215     -0.0000018349544281501     0.0000016696150541756     0.0000067724942424702     0.0000138037533747980     0.0000228465353529733     0.0000335052495437720     0.0000447359824972017     0.0000549565398176173     0.0000629908008818677     0.0000661214908530744     0.0000629907962908028     0.0000549565314133662     0.0000447359716212912     0.0000335052377533712     0.0000228465240739053     0.0000138037436800476     0.0000067724867970241     0.0000016696101671205     -0.0000018349567417327     -0.0000041224723998215     -0.0000055108591499057     -0.0000062297229910940     -0.0000064619775646100     -0.0000063979180064395     -0.0000062435897519211     -0.0000061697736378501 
    -0.0000085068274768241     -0.0000084407899638444     -0.0000081779400876066     -0.0000075617550374695     -0.0000064172938908833     -0.0000045791037914630     -0.0000018349567417327     0.0000021649753610931     0.0000079412983095119     0.0000161016370917940     0.0000271377558007514     0.0000411393606492096     0.0000604725050912077     0.0000866671562399258     0.0001139146334732956     0.0001346167232010825     0.0001423540863840660     0.0001346167177105893     0.0001139146235604391     0.0000866671437422625     0.0000604724921061980     0.0000411393490025991     0.0000271377467076514     0.0000161016311045030     0.0000079412954652514     0.0000021649753610931     -0.0000018349544281501     -0.0000045790998885022     -0.0000064172892695112     -0.0000075617506083966     -0.0000081779366542766     -0.0000084407881013389     -0.0000085068274768241 
    -0.0000102108982099092     -0.0000099911352586293     -0.0000092774368993015     -0.0000079402269197702     -0.0000058250247878448     -0.0000027338992158014     0.0000016696101671205     0.0000079412954652514     0.0000168141764769773     0.0000289987967299951     0.0000458258781115151     0.0000756746142234709     0.0001195104727420711     0.0001717141337277340     0.0002222016339768994     0.0002590607675278678     0.0002725943827000866     0.0002590607613599876     0.0002222016230172569     0.0001717141203227016     0.0001195104595061682     0.0000756746033045748     0.0000458258707434313     0.0000289987932171373     0.0000168141764769773     0.0000079412983095119     0.0000016696150541756     -0.0000027338931547591     -0.0000058250184644709     -0.0000079402212313785     -0.0000092774326292367     -0.0000099911329762019     -0.0000102108982099092 
    -0.0000112560347467615     -0.0000108685515202575     -0.0000096693255064814     -0.0000075599996970376     -0.0000043716986830725     0.0000002156593082766     0.0000067724867970240     0.0000161016311045030     0.0000289987932171373     0.0000476008301433858     0.0000836425172367336     0.0001400586780207808     0.0002134951402460818     0.0002949255125668977     0.0003704345705266949     0.0004242984885972318     0.0004438751128621761     0.0004242984822165452     0.0003704345594214421     0.0002949254995130622     0.0002134951282313326     0.0001400586693274111     0.0000836425129316279     0.0000476008301433858     0.0000289987967299951     0.0000161016370917939     0.0000067724942424702     0.0000002156672901961     -0.0000043716910099422     -0.0000075599931129866     -0.0000096693206898569     -0.0000108685489771057     -0.0000112560347467615 
    -0.0000116754401231249     -0.0000111114046847062     -0.0000094007538800694     -0.0000064598484163611     -0.0000020406545542256     0.0000044120631565087     0.0000138037436800476     0.0000271377467076513     0.0000458258707434313     0.0000836425129316279     0.0001464712878421106     0.0002327955337708398     0.0003364151087196787     0.0004457581883363428     0.0005443379243220387     0.0006136605939558749     0.0006387099514440644     0.0006136605880108288     0.0005443379142858439     0.0004457581772365152     0.0003364150996591241     0.0002327955288942562     0.0001464712878421105     0.0000836425172367336     0.0000458258781115150     0.0000271377558007514     0.0000138037533747979     0.0000044120725963528     -0.0000020406460387765     -0.0000064598413975876     -0.0000094007488622970     -0.0000111114020648544     -0.0000116754401231249 
    -0.0000115674184338216     -0.0000108259565196140     -0.0000085928388060223     -0.0000047608392563624     0.0000010829812901545     0.0000098475615389351     0.0000228465240739053     0.0000411393490025991     0.0000756746033045748     0.0001400586693274112     0.0002327955288942564     0.0003488731619121865     0.0004798976417024775     0.0006132595201833521     0.0007313863621801616     0.0008138844053459223     0.0008436363267436556     0.0008138844005076240     0.0007313863544125821     0.0006132595124997589     0.0004798976369966589     0.0003488731619121865     0.0002327955337708398     0.0001400586780207807     0.0000756746142234709     0.0000411393606492096     0.0000228465353529732     0.0000098475717673948     0.0000010829900488474     -0.0000047608322855301     -0.0000085928339245911     -0.0000108259539967154     -0.0000115674184338216 
    -0.0000110938046189854     -0.0000101830128926227     -0.0000074370948759350     -0.0000026766820929289     0.0000047607114263085     0.0000162363451602411     0.0000335052377533712     0.0000604724921061980     0.0001195104595061682     0.0002134951282313326     0.0003364150996591241     0.0004798976369966591     0.0006345640664933749     0.0007882940485124788     0.0009234071323361860     0.0010177596110383037     0.0010518348084505771     0.0010177596077668581     0.0009234071275674826     0.0007882940449377707     0.0006345640664933748     0.0004798976417024775     0.0003364151087196787     0.0002134951402460818     0.0001195104727420710     0.0000604725050912077     0.0000335052495437720     0.0000162363553039282     0.0000047607197620431     -0.0000026766756469285     -0.0000074370904391905     -0.0000101830106187642     -0.0000110938046189854 
    -0.0000104548160954908     -0.0000093928939062538     -0.0000061743714710211     -0.0000005082447575312     0.0000085713166736482     0.0000229249941484260     0.0000447359716212912     0.0000866671437422626     0.0001717141203227017     0.0002949254995130622     0.0004457581772365152     0.0006132595124997591     0.0007882940449377708     0.0009601691889873260     0.0011112771403314957     0.0012172794160403362     0.0012556911633251899     0.0012172794143712265     0.0011112771384434747     0.0009601691889873259     0.0007882940485124790     0.0006132595201833525     0.0004457581883363428     0.0002949255125668976     0.0001717141337277340     0.0000866671562399257     0.0000447359824972017     0.0000229250031674959     0.0000085713238668513     -0.0000005082393121120     -0.0000061743677700736     -0.0000093928920208164     -0.0000104548160954908 
    -0.0000098460915645677     -0.0000086629339887423     -0.0000050542225391743     0.0000013940039190291     0.0000119457414286351     0.0000289262533448559     0.0000549565314133662     0.0001139146235604392     0.0002222016230172570     0.0003704345594214421     0.0005443379142858440     0.0007313863544125821     0.0009234071275674826     0.0011112771384434745     0.0012771747559783514     0.0013942224175756074     0.0014367836610028782     0.0013942224170766986     0.0012771747559783514     0.0011112771403314957     0.0009234071323361860     0.0007313863621801616     0.0005443379243220387     0.0003704345705266949     0.0002222016339768994     0.0001139146334732955     0.0000549565398176173     0.0000289262601540664     0.0000119457467557106     0.0000013940078968856     -0.0000050542198569578     -0.0000086629326271078     -0.0000098460915645677 
    -0.0000094200979962845     -0.0000081577311138412     -0.0000042887518918669     0.0000026968791349096     0.0000142834426802334     0.0000331294235013086     0.0000629907962908028     0.0001346167177105893     0.0002590607613599876     0.0004242984822165452     0.0006136605880108288     0.0008138844005076242     0.0010177596077668581     0.0012172794143712265     0.0013942224170766990     0.0015195904254803143     0.0015652828026568519     0.0015195904254803141     0.0013942224175756079     0.0012172794160403362     0.0010177596110383035     0.0008138844053459226     0.0006136605939558749     0.0004242984885972318     0.0002590607675278678     0.0001346167232010825     0.0000629908008818677     0.0000331294271751359     0.0000142834455248162     0.0000026968812436401     -0.0000042887504756995     -0.0000081577303961082     -0.0000094200979962845 
    -0.0000092682064010082     -0.0000079782129507702     -0.0000040174902885808     0.0000031603407182415     0.0000151209593966398     0.0000346444199419852     0.0000661214908530744     0.0001423540863840660     0.0002725943827000866     0.0004438751128621760     0.0006387099514440643     0.0008436363267436555     0.0010518348084505769     0.0012556911633251901     0.0014367836610028782     0.0015652828026568517     0.0016121530620089679     0.0015652828026568517     0.0014367836610028782     0.0012556911633251901     0.0010518348084505769     0.0008436363267436556     0.0006387099514440643     0.0004438751128621760     0.0002725943827000865     0.0001423540863840660     0.0000661214908530744     0.0000346444199419852     0.0000151209593966398     0.0000031603407182415     -0.0000040174902885808     -0.0000079782129507702     -0.0000092682064010082 
    -0.0000094200979962845     -0.0000081577303961082     -0.0000042887504756995     0.0000026968812436401     0.0000142834455248162     0.0000331294271751360     0.0000629908008818677     0.0001346167232010825     0.0002590607675278679     0.0004242984885972318     0.0006136605939558749     0.0008138844053459226     0.0010177596110383035     0.0012172794160403362     0.0013942224175756079     0.0015195904254803141     0.0015652828026568519     0.0015195904254803143     0.0013942224170766990     0.0012172794143712265     0.0010177596077668581     0.0008138844005076242     0.0006136605880108288     0.0004242984822165452     0.0002590607613599876     0.0001346167177105893     0.0000629907962908028     0.0000331294235013086     0.0000142834426802333     0.0000026968791349095     -0.0000042887518918669     -0.0000081577311138412     -0.0000094200979962845 
    -0.0000098460915645678     -0.0000086629326271079     -0.0000050542198569578     0.0000013940078968856     0.0000119457467557106     0.0000289262601540664     0.0000549565398176173     0.0001139146334732956     0.0002222016339768994     0.0003704345705266949     0.0005443379243220387     0.0007313863621801616     0.0009234071323361860     0.0011112771403314957     0.0012771747559783514     0.0013942224170766986     0.0014367836610028782     0.0013942224175756074     0.0012771747559783514     0.0011112771384434747     0.0009234071275674826     0.0007313863544125821     0.0005443379142858440     0.0003704345594214421     0.0002222016230172569     0.0001139146235604392     0.0000549565314133662     0.0000289262533448559     0.0000119457414286350     0.0000013940039190290     -0.0000050542225391743     -0.0000086629339887423     -0.0000098460915645678 
    -0.0000104548160954909     -0.0000093928920208164     -0.0000061743677700736     -0.0000005082393121120     0.0000085713238668513     0.0000229250031674959     0.0000447359824972017     0.0000866671562399258     0.0001717141337277340     0.0002949255125668977     0.0004457581883363428     0.0006132595201833525     0.0007882940485124788     0.0009601691889873257     0.0011112771384434745     0.0012172794143712265     0.0012556911633251899     0.0012172794160403362     0.0011112771403314957     0.0009601691889873259     0.0007882940449377708     0.0006132595124997592     0.0004457581772365152     0.0002949254995130622     0.0001717141203227016     0.0000866671437422626     0.0000447359716212912     0.0000229249941484259     0.0000085713166736482     -0.0000005082447575313     -0.0000061743714710212     -0.0000093928939062538     -0.0000104548160954909 
    -0.0000110938046189854     -0.0000101830106187642     -0.0000074370904391905     -0.0000026766756469285     0.0000047607197620431     0.0000162363553039282     0.0000335052495437720     0.0000604725050912078     0.0001195104727420711     0.0002134951402460818     0.0003364151087196787     0.0004798976417024775     0.0006345640664933748     0.0007882940449377707     0.0009234071275674826     0.0010177596077668581     0.0010518348084505771     0.0010177596110383037     0.0009234071323361860     0.0007882940485124788     0.0006345640664933749     0.0004798976369966591     0.0003364150996591241     0.0002134951282313326     0.0001195104595061682     0.0000604724921061980     0.0000335052377533712     0.0000162363451602411     0.0000047607114263086     -0.0000026766820929289     -0.0000074370948759350     -0.0000101830128926227     -0.0000110938046189854 
    -0.0000115674184338216     -0.0000108259539967154     -0.0000085928339245911     -0.0000047608322855301     0.0000010829900488474     0.0000098475717673948     0.0000228465353529733     0.0000411393606492096     0.0000756746142234709     0.0001400586780207808     0.0002327955337708398     0.0003488731619121865     0.0004798976369966591     0.0006132595124997591     0.0007313863544125822     0.0008138844005076240     0.0008436363267436556     0.0008138844053459225     0.0007313863621801616     0.0006132595201833521     0.0004798976417024775     0.0003488731619121865     0.0002327955288942563     0.0001400586693274112     0.0000756746033045748     0.0000411393490025991     0.0000228465240739052     0.0000098475615389351     0.0000010829812901545     -0.0000047608392563624     -0.0000085928388060223     -0.0000108259565196140     -0.0000115674184338216 
    -0.0000116754401231249     -0.0000111114020648544     -0.0000094007488622970     -0.0000064598413975876     -0.0000020406460387765     0.0000044120725963528     0.0000138037533747979     0.0000271377558007514     0.0000458258781115151     0.0000836425172367337     0.0001464712878421107     0.0002327955288942563     0.0003364150996591241     0.0004457581772365153     0.0005443379142858440     0.0006136605880108288     0.0006387099514440644     0.0006136605939558749     0.0005443379243220387     0.0004457581883363428     0.0003364151087196787     0.0002327955337708398     0.0001464712878421106     0.0000836425129316279     0.0000458258707434313     0.0000271377467076513     0.0000138037436800475     0.0000044120631565087     -0.0000020406545542256     -0.0000064598484163612     -0.0000094007538800695     -0.0000111114046847062     -0.0000116754401231249 
    -0.0000112560347467615     -0.0000108685489771057     -0.0000096693206898569     -0.0000075599931129866     -0.0000043716910099421     0.0000002156672901961     0.0000067724942424703     0.0000161016370917940     0.0000289987967299952     0.0000476008301433859     0.0000836425129316280     0.0001400586693274112     0.0002134951282313327     0.0002949254995130623     0.0003704345594214421     0.0004242984822165452     0.0004438751128621761     0.0004242984885972318     0.0003704345705266949     0.0002949255125668977     0.0002134951402460818     0.0001400586780207808     0.0000836425172367336     0.0000476008301433858     0.0000289987932171373     0.0000161016311045030     0.0000067724867970240     0.0000002156593082766     -0.0000043716986830726     -0.0000075599996970376     -0.0000096693255064814     -0.0000108685515202575     -0.0000112560347467615 
    -0.0000102108982099092     -0.0000099911329762019     -0.0000092774326292367     -0.0000079402212313785     -0.0000058250184644708     -0.0000027338931547590     0.0000016696150541756     0.0000079412983095119     0.0000168141764769773     0.0000289987932171374     0.0000458258707434314     0.0000756746033045748     0.0001195104595061682     0.0001717141203227017     0.0002222016230172569     0.0002590607613599876     0.0002725943827000866     0.0002590607675278678     0.0002222016339768994     0.0001717141337277339     0.0001195104727420710     0.0000756746142234709     0.0000458258781115150     0.0000289987967299951     0.0000168141764769772     0.0000079412954652514     0.0000016696101671205     -0.0000027338992158015     -0.0000058250247878448     -0.0000079402269197701     -0.0000092774368993014     -0.0000099911352586293     -0.0000102108982099092 
    -0.0000085068274768241     -0.0000084407881013389     -0.0000081779366542765     -0.0000075617506083966     -0.0000064172892695112     -0.0000045790998885022     -0.0000018349544281501     0.0000021649753610931     0.0000079412954652515     0.0000161016311045030     0.0000271377467076514     0.0000411393490025992     0.0000604724921061980     0.0000866671437422626     0.0001139146235604392     0.0001346167177105893     0.0001423540863840660     0.0001346167232010825     0.0001139146334732955     0.0000866671562399258     0.0000604725050912077     0.0000411393606492096     0.0000271377558007514     0.0000161016370917940     0.0000079412983095119     0.0000021649753610931     -0.0000018349567417327     -0.0000045791037914630     -0.0000064172938908833     -0.0000075617550374695     -0.0000081779400876066     -0.0000084407899638444     -0.0000085068274768241 
    -0.0000061697736378500     -0.0000062435897519211     -0.0000063979180064395     -0.0000064619775646100     -0.0000062297229910940     -0.0000055108591499057     -0.0000041224723998215     -0.0000018349567417327     0.0000016696101671205     0.0000067724867970241     0.0000138037436800476     0.0000228465240739053     0.0000335052377533712     0.0000447359716212912     0.0000549565314133662     0.0000629907962908028     0.0000661214908530744     0.0000629908008818677     0.0000549565398176173     0.0000447359824972017     0.0000335052495437720     0.0000228465353529732     0.0000138037533747980     0.0000067724942424702     0.0000016696150541756     -0.0000018349544281501     -0.0000041224723998215     -0.0000055108609309187     -0.0000062297258003104     -0.0000064619805641469     -0.0000063979204472546     -0.0000062435911041456     -0.0000061697736378500 
    -0.0000032933512261089     -0.0000034987239792621     -0.0000040478280853535     -0.0000047609567295140     -0.0000053989706235453     -0.0000057202171975551     -0.0000055108609309187     -0.0000045791037914630     -0.0000027338992158014     0.0000002156593082767     0.0000044120631565088     0.0000098475615389352     0.0000162363451602411     0.0000229249941484259     0.0000289262533448559     0.0000331294235013086     0.0000346444199419852     0.0000331294271751360     0.0000289262601540665     0.0000229250031674959     0.0000162363553039282     0.0000098475717673948     0.0000044120725963528     0.0000002156672901961     -0.0000027338931547591     -0.0000045790998885022     -0.0000055108591499058     -0.0000057202171975551     -0.0000053989718061792     -0.0000047609583821944     -0.0000040478295617711     -0.0000034987248275276     -0.0000032933512261089 
    -0.0000000684278641897     -0.0000004040113323353     -0.0000013384160485060     -0.0000026720961810065     -0.0000041252283718317     -0.0000053989718061792     -0.0000062297258003105     -0.0000064172938908833     -0.0000058250247878448     -0.0000043716986830725     -0.0000020406545542255     0.0000010829812901545     0.0000047607114263085     0.0000085713166736482     0.0000119457414286351     0.0000142834426802333     0.0000151209593966398     0.0000142834455248162     0.0000119457467557106     0.0000085713238668513     0.0000047607197620431     0.0000010829900488474     -0.0000020406460387765     -0.0000043716910099422     -0.0000058250184644709     -0.0000064172892695112     -0.0000062297229910940     -0.0000053989706235453     -0.0000041252283718317     -0.0000026720967960102     -0.0000013384167562610     -0.0000004040117720706     -0.0000000684278641897 
    0.0000031865350299800     0.0000027209785347359     0.0000014125415938022     -0.0000004969121878966     -0.0000026720967960102     -0.0000047609583821944     -0.0000064619805641469     -0.0000075617550374694     -0.0000079402269197701     -0.0000075599996970375     -0.0000064598484163611     -0.0000047608392563624     -0.0000026766820929289     -0.0000005082447575312     0.0000013940039190291     0.0000026968791349096     0.0000031603407182415     0.0000026968812436401     0.0000013940078968856     -0.0000005082393121120     -0.0000026766756469285     -0.0000047608322855301     -0.0000064598413975876     -0.0000075599931129866     -0.0000079402212313785     -0.0000075617506083966     -0.0000064619775646100     -0.0000047609567295140     -0.0000026720961810065     -0.0000004969121878966     0.0000014125413726073     0.0000027209783614593     0.0000031865350299800 
    0.0000060344360851096     0.0000054498852589599     0.0000038087419812783     0.0000014125413726073     -0.0000013384167562610     -0.0000040478295617711     -0.0000063979204472545     -0.0000081779400876066     -0.0000092774368993015     -0.0000096693255064814     -0.0000094007538800694     -0.0000085928388060223     -0.0000074370948759350     -0.0000061743714710211     -0.0000050542225391743     -0.0000042887518918669     -0.0000040174902885808     -0.0000042887504756995     -0.0000050542198569578     -0.0000061743677700736     -0.0000074370904391906     -0.0000085928339245911     -0.0000094007488622970     -0.0000096693206898569     -0.0000092774326292368     -0.0000081779366542766     -0.0000063979180064395     -0.0000040478280853535     -0.0000013384160485060     0.0000014125415938022     0.0000038087419812783     0.0000054498852177131     0.0000060344360851096 
    0.0000079988519728538     0.0000073277844265727     0.0000054498852177131     0.0000027209783614593     -0.0000004040117720706     -0.0000034987248275276     -0.0000062435911041456     -0.0000084407899638444     -0.0000099911352586293     -0.0000108685515202575     -0.0000111114046847061     -0.0000108259565196140     -0.0000101830128926227     -0.0000093928939062538     -0.0000086629339887423     -0.0000081577311138412     -0.0000079782129507702     -0.0000081577303961082     -0.0000086629326271078     -0.0000093928920208164     -0.0000101830106187642     -0.0000108259539967154     -0.0000111114020648544     -0.0000108685489771057     -0.0000099911329762019     -0.0000084407881013389     -0.0000062435897519211     -0.0000034987239792621     -0.0000004040113323353     0.0000027209785347360     0.0000054498852589599     0.0000073277844265727     0.0000079988519728538 
    0.0000087018883231274     0.0000079988519728538     0.0000060344360851096     0.0000031865350299800     -0.0000000684278641897     -0.0000032933512261089     -0.0000061697736378500     -0.0000085068274768241     -0.0000102108982099091     -0.0000112560347467615     -0.0000116754401231248     -0.0000115674184338216     -0.0000110938046189854     -0.0000104548160954908     -0.0000098460915645677     -0.0000094200979962845     -0.0000092682064010082     -0.0000094200979962845     -0.0000098460915645677     -0.0000104548160954908     -0.0000110938046189854     -0.0000115674184338216     -0.0000116754401231248     -0.0000112560347467615     -0.0000102108982099092     -0.0000085068274768241     -0.0000061697736378500     -0.0000032933512261089     -0.0000000684278641897     0.0000031865350299801     0.0000060344360851096     0.0000079988519728538     0.0000087018883231274 
    -0.0000005969157455737     -0.0000010247654901655     -0.0000022280856159726     -0.0000039923313175281     -0.0000060334233148675     -0.0000080692708788692     -0.0000098685450124968     -0.0000112670358091101     -0.0000121634694227283     -0.0000125142785980666     -0.0000123376682211656     -0.0000117216097427302     -0.0000108211022084262     -0.0000098343485408816     -0.0000089625100663919     -0.0000083701559322449     -0.0000081610691495207     -0.0000083701559322449     -0.0000089625100663919     -0.0000098343485408816     -0.0000108211022084262     -0.0000117216097427302     -0.0000123376682211656     -0.0000125142785980666     -0.0000121634694227283     -0.0000112670358091101     -0.0000098685450124968     -0.0000080692708788692     -0.0000060334233148675     -0.0000039923313175281     -0.0000022280856159726     -0.0000010247654901655     -0.0000005969157455737 
    -0.0000010247654901655     -0.0000014318474892226     -0.0000025788004298325     -0.0000042646186487476     -0.0000062171111556676     -0.0000081575886894371     -0.0000098498356542332     -0.0000111221623347462     -0.0000118693986639215     -0.0000120503762527955     -0.0000116905640900448     -0.0000108869448637607     -0.0000098038710926103     -0.0000086505051964673     -0.0000076420491123261     -0.0000069588777062685     -0.0000067178166082897     -0.0000069588782235043     -0.0000076420500846093     -0.0000086505065265040     -0.0000098038726782482     -0.0000108869466082489     -0.0000116905658915026     -0.0000120503779920871     -0.0000118694002107880     -0.0000111221635762063     -0.0000098498365307975     -0.0000081575892161595     -0.0000062171114121374     -0.0000042646187414845     -0.0000025788004496887     -0.0000014318474892226     -0.0000010247654901655 
    -0.0000022280856159726     -0.0000025788004496887     -0.0000035702200792180     -0.0000050327408506061     -0.0000067228907906295     -0.0000083723080735194     -0.0000097366258305772     -0.0000106299003398748     -0.0000109395659819320     -0.0000106286444420288     -0.0000097350178714790     -0.0000083719088209156     -0.0000067254516842917     -0.0000050395914016804     -0.0000035816687368141     -0.0000025938047483983     -0.0000022444309444984     -0.0000025938057679236     -0.0000035816706504738     -0.0000050395940107809     -0.0000067254547765000     -0.0000083719121941952     -0.0000097350213195881     -0.0000106286477351359     -0.0000109395688779842     -0.0000106299026350189     -0.0000097366274235971     -0.0000083723090027039     -0.0000067228912137284     -0.0000050327409741989     -0.0000035702200792180     -0.0000025788004298325     -0.0000022280856159726 
    -0.0000039923313175281     -0.0000042646187414846     -0.0000050327409741989     -0.0000061561034762179     -0.0000074214078120878     -0.0000085782641459596     -0.0000093856097931135     -0.0000096523576432533     -0.0000092583160321442     -0.0000081575326662446     -0.0000063782788779916     -0.0000040318515280390     -0.0000013291415730011     0.0000014129363077119     0.0000037999769372488     0.0000054341623926170     0.0000060161081989788     0.0000054341608732681     0.0000037999740956870     0.0000014129324623843     -0.0000013291460736526     -0.0000040318563525067     -0.0000063782837064951     -0.0000081575371727782     -0.0000092583198984521     -0.0000096523606182597     -0.0000093856117699517     -0.0000085782652050390     -0.0000074214081914589     -0.0000061561034762179     -0.0000050327408506062     -0.0000042646186487476     -0.0000039923313175281 
    -0.0000060334233148675     -0.0000062171114121374     -0.0000067228912137284     -0.0000074214081914589     -0.0000081195833036671     -0.0000085938260789645     -0.0000086270735001489     -0.0000080348182291206     -0.0000066735107849682     -0.0000044427512738234     -0.0000013027527110626     0.0000026789571165634     0.0000072599557817836     0.0000119724913009507     0.0000161469997223565     0.0000190468751025930     0.0000200879515367851     0.0000190468730431427     0.0000161469958956130     0.0000119724861888746     0.0000072599499229730     0.0000026789510177311     -0.0000013027585988212     -0.0000044427565481722     -0.0000066735151023847     -0.0000080348213538636     -0.0000086270753722996     -0.0000085938268512928     -0.0000081195833036671     -0.0000074214078120878     -0.0000067228907906295     -0.0000062171111556676     -0.0000060334233148675 
    -0.0000080692708788692     -0.0000081575892161595     -0.0000083723090027039     -0.0000085782652050390     -0.0000085938268512928     -0.0000082292920202577     -0.0000073006965948187     -0.0000056155825025728     -0.0000029539750163392     0.0000009221935789170     0.0000062057838593107     0.0000129204035563909     0.0000207604785805026     0.0000289671498243331     0.0000363497441168804     0.0000415358152663844     0.0000434085386984044     0.0000415358125823560     0.0000363497391749304     0.0000289671433399930     0.0000207604713633819     0.0000129203963504191     0.0000062057772655927     0.0000009221880455910     -0.0000029539791860437     -0.0000056155851635485     -0.0000073006977952991     -0.0000082292920202577     -0.0000085938260789645     -0.0000085782641459596     -0.0000083723080735194     -0.0000081575886894371     -0.0000080692708788692 
    -0.0000098685450124968     -0.0000098498365307975     -0.0000097366274235971     -0.0000093856117699516     -0.0000086270753722995     -0.0000073006977952991     -0.0000052289062044946     -0.0000021504971023541     0.0000023202544374187     0.0000086545689881851     0.0000172683863841624     0.0000282868318283076     0.0000412607532559594     0.0000550225108944212     0.0000695301278936326     0.0000812446621237437     0.0000857377112021330     0.0000812446587324745     0.0000695301217162610     0.0000550225029597702     0.0000412607447318897     0.0000282868237534467     0.0000172683795117952     0.0000086545637612885     0.0000023202510394447     -0.0000021504986952676     -0.0000052289062044946     -0.0000073006965948187     -0.0000086270735001489     -0.0000093856097931134     -0.0000097366258305771     -0.0000098498356542332     -0.0000098685450124968 
    -0.0000112670358091100     -0.0000111221635762063     -0.0000106299026350189     -0.0000096523606182596     -0.0000080348213538635     -0.0000056155851635485     -0.0000021504986952676     0.0000027870847673298     0.0000098318354909636     0.0000197173100798393     0.0000330329534656274     0.0000506179944385736     0.0000783076102820766     0.0001140462951541168     0.0001501913764883512     0.0001772292565910686     0.0001872641563431082     0.0001772292524968602     0.0001501913691176159     0.0001140462859061384     0.0000783076007384304     0.0000506179859524808     0.0000330329469080182     0.0000197173058112926     0.0000098318334873834     0.0000027870847673298     -0.0000021504971023541     -0.0000056155825025727     -0.0000080348182291205     -0.0000096523576432532     -0.0000106299003398747     -0.0000111221623347461     -0.0000112670358091100 
    -0.0000121634694227283     -0.0000118694002107880     -0.0000109395688779843     -0.0000092583198984520     -0.0000066735151023846     -0.0000029539791860437     0.0000023202510394447     0.0000098318334873834     0.0000204512655743596     0.0000349863763351347     0.0000579647670739297     0.0000988218251013066     0.0001561105051556449     0.0002224529678117402     0.0002855272258688154     0.0003311257593546121     0.0003477935355534622     0.0003311257547338709     0.0002855272176621436     0.0002224529577897623     0.0001561104952952814     0.0000988218170180881     0.0000579647616702165     0.0000349863737899021     0.0000204512655743596     0.0000098318354909636     0.0000023202544374187     -0.0000029539750163393     -0.0000066735107849682     -0.0000092583160321442     -0.0000109395659819320     -0.0000118693986639215     -0.0000121634694227283 
    -0.0000125142785980666     -0.0000120503779920871     -0.0000106286477351359     -0.0000081575371727782     -0.0000044427565481722     0.0000009221880455910     0.0000086545637612885     0.0000197173058112927     0.0000349863737899021     0.0000605380895335396     0.0001090043766882490     0.0001810945194422108     0.0002720161220602212     0.0003708342300856602     0.0004613493634798593     0.0005254737390238951     0.0005487079765431019     0.0005254737342556730     0.0004613493551629541     0.0003708342202884401     0.0002720161130387933     0.0001810945129327566     0.0001090043734870716     0.0000605380895335395     0.0000349863763351346     0.0000197173100798393     0.0000086545689881850     0.0000009221935789170     -0.0000044427512738234     -0.0000081575326662447     -0.0000106286444420288     -0.0000120503762527955     -0.0000125142785980666 
    -0.0000123376682211656     -0.0000116905658915025     -0.0000097350213195880     -0.0000063782837064951     -0.0000013027585988212     0.0000062057772655928     0.0000172683795117952     0.0000330329469080182     0.0000579647616702165     0.0001090043734870717     0.0001886252190006087     0.0002938518640305844     0.0004169805032492703     0.0005448734437096227     0.0006591593530612270     0.0007391731217571930     0.0007680349594501562     0.0007391731173607295     0.0006591593456027938     0.0005448734354100489     0.0004169804964405103     0.0002938518603599211     0.0001886252190006086     0.0001090043766882489     0.0000579647670739296     0.0000330329534656273     0.0000172683863841623     0.0000062057838593107     -0.0000013027527110626     -0.0000063782788779916     -0.0000097350178714790     -0.0000116905640900448     -0.0000123376682211656 
    -0.0000117216097427302     -0.0000108869466082488     -0.0000083719121941952     -0.0000040318563525067     0.0000026789510177311     0.0000129203963504192     0.0000282868237534467     0.0000506179859524808     0.0000988218170180881     0.0001810945129327567     0.0002938518603599211     0.0004302213721644079     0.0005807133544117779     0.0007320001381143919     0.0008653078188394294     0.0009582753585518624     0.0009917987225487707     0.0009582753550350618     0.0008653078131512782     0.0007320001324312159     0.0005807133508971658     0.0004302213721644079     0.0002938518640305844     0.0001810945194422108     0.0000988218251013066     0.0000506179944385735     0.0000282868318283076     0.0000129204035563909     0.0000026789571165633     -0.0000040318515280391     -0.0000083719088209156     -0.0000108869448637607     -0.0000117216097427302 
    -0.0000108211022084262     -0.0000098038726782482     -0.0000067254547764999     -0.0000013291460736526     0.0000072599499229730     0.0000207604713633820     0.0000412607447318897     0.0000783076007384304     0.0001561104952952814     0.0002720161130387934     0.0004169804964405103     0.0005807133508971659     0.0007536198614530119     0.0009240118817774966     0.0010736618390121090     0.0011783900113033821     0.0012162782162151967     0.0011783900089752128     0.0010736618355861429     0.0009240118791749521     0.0007536198614530121     0.0005807133544117779     0.0004169805032492703     0.0002720161220602212     0.0001561105051556449     0.0000783076102820766     0.0000412607532559594     0.0000207604785805026     0.0000072599557817836     -0.0000013291415730011     -0.0000067254516842917     -0.0000098038710926103     -0.0000108211022084262 
    -0.0000098343485408815     -0.0000086505065265040     -0.0000050395940107808     0.0000014129324623843     0.0000119724861888746     0.0000289671433399930     0.0000550225029597703     0.0001140462859061385     0.0002224529577897624     0.0003708342202884401     0.0005448734354100490     0.0007320001324312159     0.0009240118791749520     0.0011117890961018584     0.0012775504143198897     0.0013944794976607265     0.0014369940587049272     0.0013944794964978718     0.0012775504129902515     0.0011117890961018589     0.0009240118817774966     0.0007320001381143918     0.0005448734437096227     0.0003708342300856602     0.0002224529678117402     0.0001140462951541168     0.0000550225108944211     0.0000289671498243331     0.0000119724913009508     0.0000014129363077119     -0.0000050395914016804     -0.0000086505051964673     -0.0000098343485408815 
    -0.0000089625100663918     -0.0000076420500846093     -0.0000035816706504737     0.0000037999740956871     0.0000161469958956131     0.0000363497391749305     0.0000695301217162611     0.0001501913691176160     0.0002855272176621436     0.0004613493551629541     0.0006591593456027938     0.0008653078131512784     0.0010736618355861429     0.0012775504129902517     0.0014590344811876571     0.0015881015751777929     0.0016352402746363565     0.0015881015748363521     0.0014590344811876573     0.0012775504143198902     0.0010736618390121090     0.0008653078188394296     0.0006591593530612269     0.0004613493634798593     0.0002855272258688154     0.0001501913764883511     0.0000695301278936326     0.0000363497441168804     0.0000161469997223565     0.0000037999769372488     -0.0000035816687368140     -0.0000076420491123261     -0.0000089625100663918 
    -0.0000083701559322448     -0.0000069588782235043     -0.0000025938057679236     0.0000054341608732682     0.0000190468730431428     0.0000415358125823561     0.0000812446587324746     0.0001772292524968604     0.0003311257547338709     0.0005254737342556731     0.0007391731173607295     0.0009582753550350616     0.0011783900089752130     0.0013944794964978718     0.0015881015748363521     0.0017265515739254998     0.0017772569939833219     0.0017265515739254998     0.0015881015751777929     0.0013944794976607268     0.0011783900113033821     0.0009582753585518624     0.0007391731217571928     0.0005254737390238953     0.0003311257593546121     0.0001772292565910686     0.0000812446621237438     0.0000415358152663844     0.0000190468751025930     0.0000054341623926170     -0.0000025938047483982     -0.0000069588777062685     -0.0000083701559322448 
    -0.0000081610691495206     -0.0000067178166082896     -0.0000022444309444984     0.0000060161081989788     0.0000200879515367851     0.0000434085386984044     0.0000857377112021330     0.0001872641563431081     0.0003477935355534622     0.0005487079765431019     0.0007680349594501562     0.0009917987225487705     0.0012162782162151965     0.0014369940587049275     0.0016352402746363565     0.0017772569939833219     0.0018293151336774309     0.0017772569939833219     0.0016352402746363565     0.0014369940587049275     0.0012162782162151965     0.0009917987225487707     0.0007680349594501562     0.0005487079765431019     0.0003477935355534622     0.0001872641563431081     0.0000857377112021330     0.0000434085386984044     0.0000200879515367851     0.0000060161081989788     -0.0000022444309444984     -0.0000067178166082896     -0.0000081610691495206 
    -0.0000083701559322448     -0.0000069588777062685     -0.0000025938047483982     0.0000054341623926170     0.0000190468751025931     0.0000415358152663845     0.0000812446621237438     0.0001772292565910688     0.0003311257593546121     0.0005254737390238952     0.0007391731217571928     0.0009582753585518624     0.0011783900113033819     0.0013944794976607265     0.0015881015751777929     0.0017265515739254998     0.0017772569939833224     0.0017265515739254998     0.0015881015748363521     0.0013944794964978718     0.0011783900089752130     0.0009582753550350618     0.0007391731173607295     0.0005254737342556731     0.0003311257547338709     0.0001772292524968602     0.0000812446587324745     0.0000415358125823561     0.0000190468730431427     0.0000054341608732682     -0.0000025938057679236     -0.0000069588782235043     -0.0000083701559322448 
    -0.0000089625100663918     -0.0000076420491123261     -0.0000035816687368140     0.0000037999769372489     0.0000161469997223566     0.0000363497441168804     0.0000695301278936326     0.0001501913764883512     0.0002855272258688155     0.0004613493634798593     0.0006591593530612269     0.0008653078188394295     0.0010736618390121090     0.0012775504143198902     0.0014590344811876573     0.0015881015748363521     0.0016352402746363565     0.0015881015751777929     0.0014590344811876571     0.0012775504129902517     0.0010736618355861429     0.0008653078131512784     0.0006591593456027938     0.0004613493551629541     0.0002855272176621436     0.0001501913691176160     0.0000695301217162611     0.0000363497391749304     0.0000161469958956130     0.0000037999740956870     -0.0000035816706504737     -0.0000076420500846092     -0.0000089625100663918 
    -0.0000098343485408815     -0.0000086505051964673     -0.0000050395914016803     0.0000014129363077119     0.0000119724913009508     0.0000289671498243331     0.0000550225108944211     0.0001140462951541168     0.0002224529678117402     0.0003708342300856602     0.0005448734437096226     0.0007320001381143919     0.0009240118817774966     0.0011117890961018589     0.0012775504129902515     0.0013944794964978718     0.0014369940587049272     0.0013944794976607265     0.0012775504143198897     0.0011117890961018586     0.0009240118791749521     0.0007320001324312159     0.0005448734354100490     0.0003708342202884401     0.0002224529577897623     0.0001140462859061385     0.0000550225029597702     0.0000289671433399930     0.0000119724861888747     0.0000014129324623843     -0.0000050395940107809     -0.0000086505065265039     -0.0000098343485408815 
    -0.0000108211022084262     -0.0000098038710926102     -0.0000067254516842917     -0.0000013291415730011     0.0000072599557817836     0.0000207604785805026     0.0000412607532559594     0.0000783076102820766     0.0001561105051556450     0.0002720161220602212     0.0004169805032492703     0.0005807133544117779     0.0007536198614530121     0.0009240118791749521     0.0010736618355861429     0.0011783900089752128     0.0012162782162151967     0.0011783900113033821     0.0010736618390121090     0.0009240118817774966     0.0007536198614530119     0.0005807133508971658     0.0004169804964405103     0.0002720161130387934     0.0001561104952952814     0.0000783076007384304     0.0000412607447318897     0.0000207604713633819     0.0000072599499229731     -0.0000013291460736526     -0.0000067254547764999     -0.0000098038726782482     -0.0000108211022084262 
    -0.0000117216097427302     -0.0000108869448637607     -0.0000083719088209156     -0.0000040318515280390     0.0000026789571165634     0.0000129204035563910     0.0000282868318283076     0.0000506179944385736     0.0000988218251013066     0.0001810945194422109     0.0002938518640305844     0.0004302213721644080     0.0005807133508971659     0.0007320001324312159     0.0008653078131512782     0.0009582753550350618     0.0009917987225487707     0.0009582753585518624     0.0008653078188394294     0.0007320001381143919     0.0005807133544117779     0.0004302213721644079     0.0002938518603599211     0.0001810945129327566     0.0000988218170180881     0.0000506179859524808     0.0000282868237534467     0.0000129203963504192     0.0000026789510177311     -0.0000040318563525067     -0.0000083719121941952     -0.0000108869466082488     -0.0000117216097427302 
    -0.0000123376682211656     -0.0000116905640900449     -0.0000097350178714790     -0.0000063782788779916     -0.0000013027527110626     0.0000062057838593107     0.0000172683863841623     0.0000330329534656273     0.0000579647670739297     0.0001090043766882490     0.0001886252190006087     0.0002938518603599211     0.0004169804964405104     0.0005448734354100489     0.0006591593456027938     0.0007391731173607295     0.0007680349594501562     0.0007391731217571928     0.0006591593530612270     0.0005448734437096227     0.0004169805032492703     0.0002938518640305843     0.0001886252190006086     0.0001090043734870716     0.0000579647616702165     0.0000330329469080182     0.0000172683795117951     0.0000062057772655927     -0.0000013027585988212     -0.0000063782837064952     -0.0000097350213195881     -0.0000116905658915025     -0.0000123376682211656 
    -0.0000125142785980666     -0.0000120503762527955     -0.0000106286444420288     -0.0000081575326662446     -0.0000044427512738234     0.0000009221935789171     0.0000086545689881851     0.0000197173100798393     0.0000349863763351347     0.0000605380895335396     0.0001090043734870717     0.0001810945129327566     0.0002720161130387933     0.0003708342202884401     0.0004613493551629541     0.0005254737342556730     0.0005487079765431020     0.0005254737390238951     0.0004613493634798592     0.0003708342300856602     0.0002720161220602211     0.0001810945194422108     0.0001090043766882489     0.0000605380895335395     0.0000349863737899021     0.0000197173058112927     0.0000086545637612885     0.0000009221880455910     -0.0000044427565481722     -0.0000081575371727783     -0.0000106286477351359     -0.0000120503779920871     -0.0000125142785980666 
    -0.0000121634694227283     -0.0000118693986639215     -0.0000109395659819320     -0.0000092583160321442     -0.0000066735107849682     -0.0000029539750163392     0.0000023202544374187     0.0000098318354909636     0.0000204512655743596     0.0000349863737899021     0.0000579647616702165     0.0000988218170180881     0.0001561104952952814     0.0002224529577897623     0.0002855272176621436     0.0003311257547338709     0.0003477935355534622     0.0003311257593546121     0.0002855272258688154     0.0002224529678117402     0.0001561105051556449     0.0000988218251013066     0.0000579647670739296     0.0000349863763351346     0.0000204512655743596     0.0000098318334873834     0.0000023202510394446     -0.0000029539791860437     -0.0000066735151023846     -0.0000092583198984520     -0.0000109395688779842     -0.0000118694002107880     -0.0000121634694227283 
    -0.0000112670358091101     -0.0000111221623347462     -0.0000106299003398748     -0.0000096523576432533     -0.0000080348182291206     -0.0000056155825025728     -0.0000021504971023541     0.0000027870847673298     0.0000098318334873834     0.0000197173058112927     0.0000330329469080183     0.0000506179859524808     0.0000783076007384304     0.0001140462859061384     0.0001501913691176159     0.0001772292524968602     0.0001872641563431081     0.0001772292565910686     0.0001501913764883511     0.0001140462951541167     0.0000783076102820766     0.0000506179944385735     0.0000330329534656273     0.0000197173100798393     0.0000098318354909636     0.0000027870847673298     -0.0000021504986952676     -0.0000056155851635485     -0.0000080348213538635     -0.0000096523606182596     -0.0000106299026350189     -0.0000111221635762063     -0.0000112670358091101 
    -0.0000098685450124968     -0.0000098498356542332     -0.0000097366258305772     -0.0000093856097931134     -0.0000086270735001488     -0.0000073006965948187     -0.0000052289062044946     -0.0000021504986952676     0.0000023202510394447     0.0000086545637612885     0.0000172683795117952     0.0000282868237534467     0.0000412607447318897     0.0000550225029597703     0.0000695301217162610     0.0000812446587324745     0.0000857377112021330     0.0000812446621237437     0.0000695301278936326     0.0000550225108944211     0.0000412607532559593     0.0000282868318283076     0.0000172683863841624     0.0000086545689881851     0.0000023202544374187     -0.0000021504971023541     -0.0000052289062044946     -0.0000073006977952991     -0.0000086270753722995     -0.0000093856117699516     -0.0000097366274235971     -0.0000098498365307975     -0.0000098685450124968 
    -0.0000080692708788692     -0.0000081575886894371     -0.0000083723080735194     -0.0000085782641459596     -0.0000085938260789645     -0.0000082292920202577     -0.0000073006977952991     -0.0000056155851635485     -0.0000029539791860437     0.0000009221880455910     0.0000062057772655927     0.0000129203963504191     0.0000207604713633820     0.0000289671433399930     0.0000363497391749304     0.0000415358125823560     0.0000434085386984044     0.0000415358152663844     0.0000363497441168804     0.0000289671498243331     0.0000207604785805026     0.0000129204035563909     0.0000062057838593107     0.0000009221935789170     -0.0000029539750163393     -0.0000056155825025728     -0.0000073006965948187     -0.0000082292920202577     -0.0000085938268512928     -0.0000085782652050390     -0.0000083723090027039     -0.0000081575892161596     -0.0000080692708788692 
    -0.0000060334233148675     -0.0000062171111556677     -0.0000067228907906295     -0.0000074214078120878     -0.0000081195833036671     -0.0000085938268512928     -0.0000086270753722996     -0.0000080348213538636     -0.0000066735151023847     -0.0000044427565481722     -0.0000013027585988212     0.0000026789510177311     0.0000072599499229730     0.0000119724861888746     0.0000161469958956130     0.0000190468730431427     0.0000200879515367851     0.0000190468751025930     0.0000161469997223565     0.0000119724913009507     0.0000072599557817836     0.0000026789571165634     -0.0000013027527110626     -0.0000044427512738234     -0.0000066735107849682     -0.0000080348182291206     -0.0000086270735001489     -0.0000085938260789646     -0.0000081195833036671     -0.0000074214081914589     -0.0000067228912137284     -0.0000062171114121375     -0.0000060334233148675 
    -0.0000039923313175281     -0.0000042646186487476     -0.0000050327408506062     -0.0000061561034762179     -0.0000074214081914589     -0.0000085782652050390     -0.0000093856117699517     -0.0000096523606182597     -0.0000092583198984521     -0.0000081575371727783     -0.0000063782837064951     -0.0000040318563525067     -0.0000013291460736526     0.0000014129324623843     0.0000037999740956870     0.0000054341608732682     0.0000060161081989788     0.0000054341623926170     0.0000037999769372488     0.0000014129363077119     -0.0000013291415730011     -0.0000040318515280390     -0.0000063782788779916     -0.0000081575326662447     -0.0000092583160321442     -0.0000096523576432533     -0.0000093856097931135     -0.0000085782641459597     -0.0000074214078120878     -0.0000061561034762179     -0.0000050327409741989     -0.0000042646187414846     -0.0000039923313175281 
    -0.0000022280856159726     -0.0000025788004298325     -0.0000035702200792180     -0.0000050327409741989     -0.0000067228912137284     -0.0000083723090027039     -0.0000097366274235971     -0.0000106299026350189     -0.0000109395688779843     -0.0000106286477351360     -0.0000097350213195881     -0.0000083719121941952     -0.0000067254547765000     -0.0000050395940107809     -0.0000035816706504737     -0.0000025938057679236     -0.0000022444309444984     -0.0000025938047483983     -0.0000035816687368141     -0.0000050395914016804     -0.0000067254516842917     -0.0000083719088209156     -0.0000097350178714790     -0.0000106286444420288     -0.0000109395659819320     -0.0000106299003398748     -0.0000097366258305772     -0.0000083723080735194     -0.0000067228907906295     -0.0000050327408506062     -0.0000035702200792180     -0.0000025788004496887     -0.0000022280856159726 
    -0.0000010247654901655     -0.0000014318474892226     -0.0000025788004496887     -0.0000042646187414846     -0.0000062171114121374     -0.0000081575892161596     -0.0000098498365307975     -0.0000111221635762063     -0.0000118694002107880     -0.0000120503779920871     -0.0000116905658915026     -0.0000108869466082489     -0.0000098038726782482     -0.0000086505065265040     -0.0000076420500846093     -0.0000069588782235044     -0.0000067178166082897     -0.0000069588777062686     -0.0000076420491123261     -0.0000086505051964673     -0.0000098038710926103     -0.0000108869448637607     -0.0000116905640900448     -0.0000120503762527955     -0.0000118693986639215     -0.0000111221623347462     -0.0000098498356542332     -0.0000081575886894371     -0.0000062171111556677     -0.0000042646186487476     -0.0000025788004298325     -0.0000014318474892226     -0.0000010247654901655 
    -0.0000005969157455737     -0.0000010247654901655     -0.0000022280856159726     -0.0000039923313175281     -0.0000060334233148675     -0.0000080692708788692     -0.0000098685450124968     -0.0000112670358091101     -0.0000121634694227283     -0.0000125142785980666     -0.0000123376682211656     -0.0000117216097427302     -0.0000108211022084262     -0.0000098343485408816     -0.0000089625100663919     -0.0000083701559322449     -0.0000081610691495207     -0.0000083701559322449     -0.0000089625100663919     -0.0000098343485408816     -0.0000108211022084262     -0.0000117216097427302     -0.0000123376682211656     -0.0000125142785980666     -0.0000121634694227283     -0.0000112670358091101     -0.0000098685450124968     -0.0000080692708788692     -0.0000060334233148675     -0.0000039923313175281     -0.0000022280856159726     -0.0000010247654901655     -0.0000005969157455737 
    -0.0000055501177131204     -0.0000058516755261283     -0.0000067022524403236     -0.0000079532776455503     -0.0000093981027141459     -0.0000108179511080829     -0.0000120211959581509     -0.0000128655312755227     -0.0000132639487446545     -0.0000131837593691839     -0.0000126475066716557     -0.0000117368963023625     -0.0000105925288427546     -0.0000094003260992511     -0.0000083620335961719     -0.0000076570141513674     -0.0000074076073060638     -0.0000076570141513674     -0.0000083620335961719     -0.0000094003260992511     -0.0000105925288427546     -0.0000117368963023625     -0.0000126475066716557     -0.0000131837593691840     -0.0000132639487446545     -0.0000128655312755227     -0.0000120211959581509     -0.0000108179511080830     -0.0000093981027141460     -0.0000079532776455504     -0.0000067022524403236     -0.0000058516755261284     -0.0000055501177131204 
    -0.0000058516755261283     -0.0000061371912051823     -0.0000069440032300755     -0.0000081332602784510     -0.0000095060675951249     -0.0000108441122616618     -0.0000119495781182689     -0.0000126726930718715     -0.0000129232666605949     -0.0000126717516807749     -0.0000119482649943502     -0.0000108434063072813     -0.0000095070610697292     -0.0000081367808861411     -0.0000069502539798754     -0.0000061455582970247     -0.0000058608412248592     -0.0000061455585687333     -0.0000069502544875705     -0.0000081367815750130     -0.0000095070618844385     -0.0000108434071981306     -0.0000119482659104355     -0.0000126717525617844     -0.0000129232674393495     -0.0000126726936900441     -0.0000119495785466252     -0.0000108441125113201     -0.0000095060677109386     -0.0000081332603172706     -0.0000069440032375026     -0.0000061371912051823     -0.0000058516755261283 
    -0.0000067022524403236     -0.0000069440032375026     -0.0000076289552722746     -0.0000086395668865899     -0.0000097946614083446     -0.0000108784790814708     -0.0000116817186405158     -0.0000120403154228329     -0.0000118578981336294     -0.0000111097693640298     -0.0000098378329612887     -0.0000081477479452209     -0.0000062112454349519     -0.0000042639910357831     -0.0000025835426693397     -0.0000014406496913551     -0.0000010350839851406     -0.0000014406502267444     -0.0000025835436684126     -0.0000042639923871233     -0.0000062112470238984     -0.0000081477496679517     -0.0000098378347147455     -0.0000111097710323202     -0.0000118578995926620     -0.0000120403165680586     -0.0000116817194227105     -0.0000108784795262635     -0.0000097946616032233     -0.0000086395669404133     -0.0000076289552722746     -0.0000069440032300755     -0.0000067022524403236 
    -0.0000079532776455504     -0.0000081332603172706     -0.0000086395669404133     -0.0000093705617376810     -0.0000101608969326384     -0.0000108028033594317     -0.0000110860224419470     -0.0000108403013048356     -0.0000099603013720426     -0.0000084087725697374     -0.0000062128746571655     -0.0000034725494688901     -0.0000003856728796918     0.0000027291734337547     0.0000054477275912414     0.0000073178018431740     0.0000079859457521894     0.0000073178010446931     0.0000054477261060751     0.0000027291714391232     -0.0000003856751963363     -0.0000034725519366864     -0.0000062128771158308     -0.0000084087748555744     -0.0000099603033233646     -0.0000108403027943762     -0.0000110860234191930     -0.0000108028038730095     -0.0000101608971116223     -0.0000093705617376810     -0.0000086395668865900     -0.0000081332602784510     -0.0000079532776455504 
    -0.0000093981027141460     -0.0000095060677109386     -0.0000097946616032233     -0.0000101608971116223     -0.0000104459419609964     -0.0000104592644768515     -0.0000100094036962669     -0.0000089277661885875     -0.0000070770544533884     -0.0000043529197258395     -0.0000007013627742121     0.0000038288798645394     0.0000090033503372393     0.0000143296428889357     0.0000190666898526029     0.0000223714447836907     0.0000235609757051898     0.0000223714436981053     0.0000190666878452443     0.0000143296402256865     0.0000090033473072124     0.0000038288767306749     -0.0000007013657840641     -0.0000043529224101699     -0.0000070770566398847     -0.0000089277677604245     -0.0000100094046288746     -0.0000104592648563440     -0.0000104459419609964     -0.0000101608969326385     -0.0000097946614083447     -0.0000095060675951250     -0.0000093981027141460 
    -0.0000108179511080829     -0.0000108441125113201     -0.0000108784795262635     -0.0000108028038730094     -0.0000104592648563440     -0.0000096826080520408     -0.0000083059170231599     -0.0000061396946303162     -0.0000029503330301184     0.0000015288340764895     0.0000075275443881561     0.0000150988502798609     0.0000239325961355711     0.0000332011590777713     0.0000415673710968203     0.0000474621790049880     0.0000495945231771850     0.0000474621775827461     0.0000415673684883860     0.0000332011556748531     0.0000239325923729518     0.0000150988465474144     0.0000075275409930893     0.0000015288312430379     -0.0000029503351533894     -0.0000061396959766983     -0.0000083059176258373     -0.0000096826080520409     -0.0000104592644768515     -0.0000108028033594318     -0.0000108784790814708     -0.0000108441122616619     -0.0000108179511080829 
    -0.0000120211959581509     -0.0000119495785466252     -0.0000116817194227104     -0.0000110860234191930     -0.0000100094046288746     -0.0000083059176258373     -0.0000057992266976670     -0.0000022071930580063     0.0000029010194116845     0.0000100594854911054     0.0000197483663570943     0.0000321292840893888     0.0000467217684930295     0.0000631098335235799     0.0000813007881698553     0.0000957307877138782     0.0001012238357057707     0.0000957307859060515     0.0000813007848856005     0.0000631098293226555     0.0000467217640040286     0.0000321292798627422     0.0000197483627831936     0.0000100594827911050     0.0000029010176683965     -0.0000022071938695462     -0.0000057992266976670     -0.0000083059170231600     -0.0000100094036962669     -0.0000110860224419470     -0.0000116817186405159     -0.0000119495781182689     -0.0000120211959581509 
    -0.0000128655312755227     -0.0000126726936900441     -0.0000120403165680586     -0.0000108403027943761     -0.0000089277677604244     -0.0000061396959766982     -0.0000022071938695462     0.0000033510300022550     0.0000112502200636713     0.0000223144184232117     0.0000372059206299565     0.0000583729648131602     0.0000922411431479496     0.0001348639150328783     0.0001773500854253757     0.0002088742932833567     0.0002205314736010673     0.0002088742910906828     0.0001773500814825991     0.0001348639100968196     0.0000922411380717815     0.0000583729603217125     0.0000372059171812732     0.0000223144161952523     0.0000112502190264578     0.0000033510300022550     -0.0000022071930580064     -0.0000061396946303162     -0.0000089277661885875     -0.0000108403013048356     -0.0000120403154228329     -0.0000126726930718715     -0.0000128655312755227 
    -0.0000132639487446545     -0.0000129232674393495     -0.0000118578995926620     -0.0000099603033233645     -0.0000070770566398846     -0.0000029503351533893     0.0000029010176683966     0.0000112502190264578     0.0000230650263119357     0.0000392237941002997     0.0000676277066119474     0.0001164611452183906     0.0001832875238495678     0.0002595286402290833     0.0003313503063799412     0.0003829977222629735     0.0004018308391089590     0.0003829977197852709     0.0003313503019771973     0.0002595286348518507     0.0001832875185647997     0.0001164611408991240     0.0000676277037398491     0.0000392237927577008     0.0000230650263119356     0.0000112502200636713     0.0000029010194116844     -0.0000029503330301185     -0.0000070770544533884     -0.0000099603013720426     -0.0000118578981336294     -0.0000129232666605949     -0.0000132639487446545 
    -0.0000131837593691839     -0.0000126717525617844     -0.0000111097710323202     -0.0000084087748555744     -0.0000043529224101698     0.0000015288312430379     0.0000100594827911050     0.0000223144161952524     0.0000392237927577009     0.0000707604440449215     0.0001281537004756165     0.0002112439926765576     0.0003142700510250280     0.0004250345360882564     0.0005258208877498276     0.0005969564795638162     0.0006226885202995289     0.0005969564770163058     0.0005258208832959519     0.0004250345308274144     0.0003142700461722600     0.0002112439891764508     0.0001281536987601810     0.0000707604440449214     0.0000392237941002996     0.0000223144184232116     0.0000100594854911053     0.0000015288340764895     -0.0000043529197258396     -0.0000084087725697375     -0.0000111097693640298     -0.0000126717516807749     -0.0000131837593691839 
    -0.0000126475066716557     -0.0000119482659104355     -0.0000098378347147454     -0.0000062128771158308     -0.0000007013657840640     0.0000075275409930894     0.0000197483627831937     0.0000372059171812733     0.0000676277037398491     0.0001281536987601811     0.0002194989080859959     0.0003377077163695863     0.0004741279889447162     0.0006146394339097392     0.0007396292869326308     0.0008269469161927564     0.0008584171582145008     0.0008269469138650365     0.0007396292829668820     0.0006146394294724835     0.0004741279852865528     0.0003377077143920936     0.0002194989080859957     0.0001281537004756165     0.0000676277066119473     0.0000372059206299564     0.0000197483663570943     0.0000075275443881561     -0.0000007013627742121     -0.0000062128746571655     -0.0000098378329612887     -0.0000119482649943502     -0.0000126475066716557 
    -0.0000117368963023625     -0.0000108434071981305     -0.0000081477496679517     -0.0000034725519366864     0.0000038288767306749     0.0000150988465474144     0.0000321292798627422     0.0000583729603217125     0.0001164611408991241     0.0002112439891764508     0.0003377077143920936     0.0004878095680328006     0.0006514749192362307     0.0008150009440634681     0.0009587916944785159     0.0010590493401037840     0.0010952094226412325     0.0010590493382673721     0.0009587916914900643     0.0008150009410529038     0.0006514749173590726     0.0004878095680328006     0.0003377077163695863     0.0002112439926765576     0.0001164611452183905     0.0000583729648131601     0.0000321292840893887     0.0000150988502798609     0.0000038288798645394     -0.0000034725494688901     -0.0000081477479452209     -0.0000108434063072813     -0.0000117368963023625 
    -0.0000105925288427546     -0.0000095070618844385     -0.0000062112470238984     -0.0000003856751963363     0.0000090033473072125     0.0000239325923729518     0.0000467217640040287     0.0000922411380717815     0.0001832875185647997     0.0003142700461722600     0.0004741279852865528     0.0006514749173590726     0.0008368144091735519     0.0010188571190773350     0.0011788954691030048     0.0012911278990042053     0.0013317866754549996     0.0012911278978086683     0.0011788954673301840     0.0010188571177160892     0.0008368144091735521     0.0006514749192362307     0.0004741279889447162     0.0003142700510250280     0.0001832875238495677     0.0000922411431479495     0.0000467217684930295     0.0000239325961355711     0.0000090033503372393     -0.0000003856728796917     -0.0000062112454349519     -0.0000095070610697292     -0.0000105925288427546 
    -0.0000094003260992511     -0.0000081367815750130     -0.0000042639923871232     0.0000027291714391232     0.0000143296402256866     0.0000332011556748531     0.0000631098293226556     0.0001348639100968196     0.0002595286348518507     0.0004250345308274145     0.0006146394294724835     0.0008150009410529036     0.0010188571177160892     0.0012182089307963958     0.0013949076689632911     0.0015200641090394060     0.0015656733581721743     0.0015200641084523532     0.0013949076682861102     0.0012182089307963958     0.0010188571190773350     0.0008150009440634680     0.0006146394339097394     0.0004250345360882564     0.0002595286402290833     0.0001348639150328783     0.0000631098335235799     0.0000332011590777713     0.0000143296428889357     0.0000027291734337547     -0.0000042639910357831     -0.0000081367808861411     -0.0000094003260992511 
    -0.0000083620335961719     -0.0000069502544875705     -0.0000025835436684126     0.0000054477261060752     0.0000190666878452443     0.0000415673684883861     0.0000813007848856006     0.0001773500814825991     0.0003313503019771973     0.0005258208832959520     0.0007396292829668820     0.0009587916914900641     0.0011788954673301840     0.0013949076682861102     0.0015884193298595912     0.0017267744360472757     0.0017774427010377731     0.0017267744358773921     0.0015884193298595912     0.0013949076689632911     0.0011788954691030046     0.0009587916944785158     0.0007396292869326308     0.0005258208877498276     0.0003313503063799412     0.0001773500854253757     0.0000813007881698553     0.0000415673710968202     0.0000190666898526028     0.0000054477275912414     -0.0000025835426693397     -0.0000069502539798754     -0.0000083620335961719 
    -0.0000076570141513674     -0.0000061455585687333     -0.0000014406502267444     0.0000073178010446931     0.0000223714436981053     0.0000474621775827461     0.0000957307859060515     0.0002088742910906828     0.0003829977197852709     0.0005969564770163058     0.0008269469138650365     0.0010590493382673723     0.0012911278978086679     0.0015200641084523534     0.0017267744358773918     0.0018754462011171574     0.0019300498792404685     0.0018754462011171572     0.0017267744360472753     0.0015200641090394056     0.0012911278990042055     0.0010590493401037842     0.0008269469161927564     0.0005969564795638162     0.0003829977222629735     0.0002088742932833567     0.0000957307877138782     0.0000474621790049880     0.0000223714447836907     0.0000073178018431740     -0.0000014406496913551     -0.0000061455582970247     -0.0000076570141513674 
    -0.0000074076073060638     -0.0000058608412248593     -0.0000010350839851406     0.0000079859457521894     0.0000235609757051898     0.0000495945231771850     0.0001012238357057707     0.0002205314736010673     0.0004018308391089589     0.0006226885202995289     0.0008584171582145008     0.0010952094226412325     0.0013317866754549996     0.0015656733581721741     0.0017774427010377734     0.0019300498792404685     0.0019861496128634809     0.0019300498792404685     0.0017774427010377734     0.0015656733581721741     0.0013317866754549996     0.0010952094226412325     0.0008584171582145008     0.0006226885202995289     0.0004018308391089589     0.0002205314736010673     0.0001012238357057707     0.0000495945231771850     0.0000235609757051898     0.0000079859457521894     -0.0000010350839851406     -0.0000058608412248593     -0.0000074076073060638 
    -0.0000076570141513674     -0.0000061455582970248     -0.0000014406496913551     0.0000073178018431740     0.0000223714447836907     0.0000474621790049881     0.0000957307877138783     0.0002088742932833567     0.0003829977222629736     0.0005969564795638161     0.0008269469161927563     0.0010590493401037840     0.0012911278990042053     0.0015200641090394056     0.0017267744360472753     0.0018754462011171572     0.0019300498792404685     0.0018754462011171574     0.0017267744358773918     0.0015200641084523537     0.0012911278978086683     0.0010590493382673725     0.0008269469138650365     0.0005969564770163060     0.0003829977197852709     0.0002088742910906828     0.0000957307859060514     0.0000474621775827461     0.0000223714436981053     0.0000073178010446931     -0.0000014406502267444     -0.0000061455585687333     -0.0000076570141513674 
    -0.0000083620335961719     -0.0000069502539798754     -0.0000025835426693397     0.0000054477275912414     0.0000190666898526029     0.0000415673710968203     0.0000813007881698554     0.0001773500854253757     0.0003313503063799412     0.0005258208877498276     0.0007396292869326308     0.0009587916944785158     0.0011788954691030046     0.0013949076689632911     0.0015884193298595912     0.0017267744358773921     0.0017774427010377731     0.0017267744360472757     0.0015884193298595912     0.0013949076682861102     0.0011788954673301840     0.0009587916914900641     0.0007396292829668820     0.0005258208832959520     0.0003313503019771973     0.0001773500814825990     0.0000813007848856005     0.0000415673684883860     0.0000190666878452443     0.0000054477261060751     -0.0000025835436684126     -0.0000069502544875705     -0.0000083620335961719 
    -0.0000094003260992511     -0.0000081367808861411     -0.0000042639910357831     0.0000027291734337547     0.0000143296428889357     0.0000332011590777713     0.0000631098335235799     0.0001348639150328783     0.0002595286402290833     0.0004250345360882563     0.0006146394339097392     0.0008150009440634680     0.0010188571190773350     0.0012182089307963958     0.0013949076682861102     0.0015200641084523532     0.0015656733581721743     0.0015200641090394060     0.0013949076689632911     0.0012182089307963958     0.0010188571177160892     0.0008150009410529036     0.0006146394294724835     0.0004250345308274144     0.0002595286348518506     0.0001348639100968196     0.0000631098293226555     0.0000332011556748531     0.0000143296402256866     0.0000027291714391232     -0.0000042639923871233     -0.0000081367815750130     -0.0000094003260992511 
    -0.0000105925288427546     -0.0000095070610697292     -0.0000062112454349519     -0.0000003856728796917     0.0000090033503372393     0.0000239325961355711     0.0000467217684930295     0.0000922411431479496     0.0001832875238495678     0.0003142700510250280     0.0004741279889447162     0.0006514749192362307     0.0008368144091735521     0.0010188571177160892     0.0011788954673301840     0.0012911278978086679     0.0013317866754549996     0.0012911278990042053     0.0011788954691030048     0.0010188571190773350     0.0008368144091735519     0.0006514749173590726     0.0004741279852865528     0.0003142700461722600     0.0001832875185647997     0.0000922411380717815     0.0000467217640040286     0.0000239325923729518     0.0000090033473072125     -0.0000003856751963363     -0.0000062112470238984     -0.0000095070618844385     -0.0000105925288427546 
    -0.0000117368963023625     -0.0000108434063072813     -0.0000081477479452209     -0.0000034725494688901     0.0000038288798645394     0.0000150988502798609     0.0000321292840893888     0.0000583729648131602     0.0001164611452183906     0.0002112439926765576     0.0003377077163695864     0.0004878095680328007     0.0006514749173590727     0.0008150009410529038     0.0009587916914900643     0.0010590493382673721     0.0010952094226412325     0.0010590493401037840     0.0009587916944785158     0.0008150009440634681     0.0006514749192362307     0.0004878095680328006     0.0003377077143920936     0.0002112439891764508     0.0001164611408991240     0.0000583729603217125     0.0000321292798627422     0.0000150988465474144     0.0000038288767306749     -0.0000034725519366864     -0.0000081477496679517     -0.0000108434071981306     -0.0000117368963023625 
    -0.0000126475066716557     -0.0000119482649943502     -0.0000098378329612887     -0.0000062128746571655     -0.0000007013627742121     0.0000075275443881561     0.0000197483663570943     0.0000372059206299565     0.0000676277066119473     0.0001281537004756165     0.0002194989080859958     0.0003377077143920936     0.0004741279852865528     0.0006146394294724835     0.0007396292829668820     0.0008269469138650365     0.0008584171582145008     0.0008269469161927563     0.0007396292869326308     0.0006146394339097392     0.0004741279889447161     0.0003377077163695863     0.0002194989080859958     0.0001281536987601810     0.0000676277037398491     0.0000372059171812733     0.0000197483627831936     0.0000075275409930893     -0.0000007013657840641     -0.0000062128771158308     -0.0000098378347147455     -0.0000119482659104355     -0.0000126475066716557 
    -0.0000131837593691840     -0.0000126717516807749     -0.0000111097693640298     -0.0000084087725697374     -0.0000043529197258395     0.0000015288340764896     0.0000100594854911054     0.0000223144184232117     0.0000392237941002997     0.0000707604440449214     0.0001281536987601811     0.0002112439891764508     0.0003142700461722600     0.0004250345308274146     0.0005258208832959520     0.0005969564770163058     0.0006226885202995289     0.0005969564795638162     0.0005258208877498275     0.0004250345360882564     0.0003142700510250280     0.0002112439926765576     0.0001281537004756165     0.0000707604440449214     0.0000392237927577008     0.0000223144161952524     0.0000100594827911050     0.0000015288312430379     -0.0000043529224101698     -0.0000084087748555744     -0.0000111097710323202     -0.0000126717525617844     -0.0000131837593691840 
    -0.0000132639487446545     -0.0000129232666605949     -0.0000118578981336294     -0.0000099603013720426     -0.0000070770544533884     -0.0000029503330301185     0.0000029010194116844     0.0000112502200636714     0.0000230650263119357     0.0000392237927577009     0.0000676277037398491     0.0001164611408991241     0.0001832875185647997     0.0002595286348518507     0.0003313503019771973     0.0003829977197852709     0.0004018308391089590     0.0003829977222629735     0.0003313503063799412     0.0002595286402290833     0.0001832875238495677     0.0001164611452183905     0.0000676277066119473     0.0000392237941002997     0.0000230650263119357     0.0000112502190264578     0.0000029010176683965     -0.0000029503351533893     -0.0000070770566398847     -0.0000099603033233645     -0.0000118578995926619     -0.0000129232674393495     -0.0000132639487446545 
    -0.0000128655312755227     -0.0000126726930718716     -0.0000120403154228330     -0.0000108403013048356     -0.0000089277661885875     -0.0000061396946303162     -0.0000022071930580064     0.0000033510300022550     0.0000112502190264578     0.0000223144161952524     0.0000372059171812733     0.0000583729603217125     0.0000922411380717815     0.0001348639100968196     0.0001773500814825991     0.0002088742910906828     0.0002205314736010673     0.0002088742932833567     0.0001773500854253757     0.0001348639150328783     0.0000922411431479495     0.0000583729648131601     0.0000372059206299565     0.0000223144184232117     0.0000112502200636713     0.0000033510300022550     -0.0000022071938695462     -0.0000061396959766982     -0.0000089277677604244     -0.0000108403027943761     -0.0000120403165680586     -0.0000126726936900441     -0.0000128655312755227 
    -0.0000120211959581509     -0.0000119495781182689     -0.0000116817186405159     -0.0000110860224419470     -0.0000100094036962669     -0.0000083059170231599     -0.0000057992266976670     -0.0000022071938695462     0.0000029010176683966     0.0000100594827911050     0.0000197483627831936     0.0000321292798627422     0.0000467217640040286     0.0000631098293226555     0.0000813007848856005     0.0000957307859060515     0.0001012238357057707     0.0000957307877138782     0.0000813007881698554     0.0000631098335235799     0.0000467217684930294     0.0000321292840893887     0.0000197483663570943     0.0000100594854911053     0.0000029010194116845     -0.0000022071930580064     -0.0000057992266976670     -0.0000083059176258373     -0.0000100094046288746     -0.0000110860234191930     -0.0000116817194227105     -0.0000119495785466252     -0.0000120211959581509 
    -0.0000108179511080830     -0.0000108441122616619     -0.0000108784790814708     -0.0000108028033594318     -0.0000104592644768515     -0.0000096826080520408     -0.0000083059176258373     -0.0000061396959766982     -0.0000029503351533894     0.0000015288312430379     0.0000075275409930894     0.0000150988465474144     0.0000239325923729518     0.0000332011556748531     0.0000415673684883860     0.0000474621775827461     0.0000495945231771850     0.0000474621790049880     0.0000415673710968203     0.0000332011590777713     0.0000239325961355711     0.0000150988502798609     0.0000075275443881561     0.0000015288340764895     -0.0000029503330301184     -0.0000061396946303162     -0.0000083059170231599     -0.0000096826080520408     -0.0000104592648563440     -0.0000108028038730094     -0.0000108784795262635     -0.0000108441125113201     -0.0000108179511080830 
    -0.0000093981027141459     -0.0000095060675951250     -0.0000097946614083447     -0.0000101608969326384     -0.0000104459419609964     -0.0000104592648563440     -0.0000100094046288746     -0.0000089277677604244     -0.0000070770566398847     -0.0000043529224101699     -0.0000007013657840641     0.0000038288767306749     0.0000090033473072124     0.0000143296402256865     0.0000190666878452443     0.0000223714436981053     0.0000235609757051898     0.0000223714447836907     0.0000190666898526029     0.0000143296428889357     0.0000090033503372392     0.0000038288798645394     -0.0000007013627742121     -0.0000043529197258395     -0.0000070770544533884     -0.0000089277661885875     -0.0000100094036962669     -0.0000104592644768515     -0.0000104459419609964     -0.0000101608971116223     -0.0000097946616032233     -0.0000095060677109386     -0.0000093981027141459 
    -0.0000079532776455504     -0.0000081332602784510     -0.0000086395668865900     -0.0000093705617376810     -0.0000101608971116223     -0.0000108028038730094     -0.0000110860234191930     -0.0000108403027943762     -0.0000099603033233646     -0.0000084087748555745     -0.0000062128771158308     -0.0000034725519366864     -0.0000003856751963363     0.0000027291714391232     0.0000054477261060751     0.0000073178010446931     0.0000079859457521894     0.0000073178018431740     0.0000054477275912414     0.0000027291734337546     -0.0000003856728796918     -0.0000034725494688901     -0.0000062128746571656     -0.0000084087725697375     -0.0000099603013720426     -0.0000108403013048356     -0.0000110860224419470     -0.0000108028033594318     -0.0000101608969326385     -0.0000093705617376810     -0.0000086395669404134     -0.0000081332603172706     -0.0000079532776455504 
    -0.0000067022524403236     -0.0000069440032300755     -0.0000076289552722746     -0.0000086395669404133     -0.0000097946616032233     -0.0000108784795262635     -0.0000116817194227104     -0.0000120403165680586     -0.0000118578995926620     -0.0000111097710323202     -0.0000098378347147455     -0.0000081477496679517     -0.0000062112470238984     -0.0000042639923871233     -0.0000025835436684126     -0.0000014406502267444     -0.0000010350839851406     -0.0000014406496913551     -0.0000025835426693397     -0.0000042639910357831     -0.0000062112454349519     -0.0000081477479452209     -0.0000098378329612887     -0.0000111097693640298     -0.0000118578981336294     -0.0000120403154228329     -0.0000116817186405159     -0.0000108784790814708     -0.0000097946614083447     -0.0000086395668865900     -0.0000076289552722746     -0.0000069440032375026     -0.0000067022524403236 
    -0.0000058516755261283     -0.0000061371912051823     -0.0000069440032375026     -0.0000081332603172706     -0.0000095060677109386     -0.0000108441125113201     -0.0000119495785466252     -0.0000126726936900441     -0.0000129232674393495     -0.0000126717525617844     -0.0000119482659104355     -0.0000108434071981306     -0.0000095070618844385     -0.0000081367815750130     -0.0000069502544875705     -0.0000061455585687333     -0.0000058608412248592     -0.0000061455582970247     -0.0000069502539798754     -0.0000081367808861411     -0.0000095070610697292     -0.0000108434063072813     -0.0000119482649943502     -0.0000126717516807749     -0.0000129232666605950     -0.0000126726930718715     -0.0000119495781182689     -0.0000108441122616619     -0.0000095060675951250     -0.0000081332602784510     -0.0000069440032300755     -0.0000061371912051823     -0.0000058516755261283 
    -0.0000055501177131204     -0.0000058516755261283     -0.0000067022524403236     -0.0000079532776455503     -0.0000093981027141459     -0.0000108179511080829     -0.0000120211959581509     -0.0000128655312755227     -0.0000132639487446545     -0.0000131837593691839     -0.0000126475066716557     -0.0000117368963023625     -0.0000105925288427546     -0.0000094003260992511     -0.0000083620335961719     -0.0000076570141513674     -0.0000074076073060638     -0.0000076570141513674     -0.0000083620335961719     -0.0000094003260992511     -0.0000105925288427546     -0.0000117368963023625     -0.0000126475066716557     -0.0000131837593691840     -0.0000132639487446545     -0.0000128655312755227     -0.0000120211959581509     -0.0000108179511080830     -0.0000093981027141460     -0.0000079532776455504     -0.0000067022524403236     -0.0000058516755261284     -0.0000055501177131204 
    -0.0000071340178212307     -0.0000073987728909155     -0.0000081457058240255     -0.0000092432816409619     -0.0000105048744946548     -0.0000117285476324796     -0.0000127346725043444     -0.0000133902088845101     -0.0000136168622387520     -0.0000133893834459109     -0.0000127334683825429     -0.0000117277295756731     -0.0000105052913057668     -0.0000092455742421467     -0.0000081500363244684     -0.0000074046852422425     -0.0000071405271393406     -0.0000074046852422425     -0.0000081500363244684     -0.0000092455742421467     -0.0000105052913057668     -0.0000117277295756731     -0.0000127334683825429     -0.0000133893834459109     -0.0000136168622387520     -0.0000133902088845101     -0.0000127346725043444     -0.0000117285476324796     -0.0000105048744946548     -0.0000092432816409620     -0.0000081457058240255     -0.0000073987728909155     -0.0000071340178212307 
    -0.0000073987728909155     -0.0000076487534938811     -0.0000083552773763751     -0.0000093954602844092     -0.0000105893138043300     -0.0000117346284183992     -0.0000126453153934487     -0.0000131809199988015     -0.0000132601271621993     -0.0000128609113323682     -0.0000120164636989919     -0.0000108141329704003     -0.0000093962793567533     -0.0000079542238264578     -0.0000067060985491430     -0.0000058577342373311     -0.0000055570055506992     -0.0000058577342373311     -0.0000067060985491430     -0.0000079542238264578     -0.0000093962793567533     -0.0000108141329704003     -0.0000120164636989919     -0.0000128609113323683     -0.0000132601271621993     -0.0000131809199988016     -0.0000126453153934487     -0.0000117346284183993     -0.0000105893138043300     -0.0000093954602844092     -0.0000083552773763751     -0.0000076487534938812     -0.0000073987728909155 
    -0.0000081457058240255     -0.0000083552773763751     -0.0000089488511343057     -0.0000098220653265904     -0.0000108097174775443     -0.0000117102357309435     -0.0000123253744979212     -0.0000125004618433517     -0.0000121481289338176     -0.0000112509014671326     -0.0000098530266016056     -0.0000080562111697336     -0.0000060246571408059     -0.0000039891017171176     -0.0000022304688500078     -0.0000010313674218174     -0.0000006050890100824     -0.0000010313674218174     -0.0000022304688500078     -0.0000039891017171176     -0.0000060246571408059     -0.0000080562111697336     -0.0000098530266016056     -0.0000112509014671326     -0.0000121481289338176     -0.0000125004618433518     -0.0000123253744979213     -0.0000117102357309436     -0.0000108097174775443     -0.0000098220653265905     -0.0000089488511343057     -0.0000083552773763751     -0.0000081457058240255 
    -0.0000092432816409620     -0.0000093954602844093     -0.0000098220653265905     -0.0000104311248663970     -0.0000110695591184639     -0.0000115414225443892     -0.0000116466516251802     -0.0000112240107067381     -0.0000101761225964657     -0.0000084708763107156     -0.0000061352757818780     -0.0000032636646773660     -0.0000000469404995269     0.0000031974637741287     0.0000060346137330825     0.0000079909119313542     0.0000086909167019428     0.0000079909119313542     0.0000060346137330825     0.0000031974637741287     -0.0000000469404995269     -0.0000032636646773661     -0.0000061352757818781     -0.0000084708763107156     -0.0000101761225964657     -0.0000112240107067382     -0.0000116466516251802     -0.0000115414225443892     -0.0000110695591184639     -0.0000104311248663970     -0.0000098220653265905     -0.0000093954602844093     -0.0000092432816409620 
    -0.0000105048744946548     -0.0000105893138043300     -0.0000108097174775443     -0.0000110695591184639     -0.0000112189407637734     -0.0000110769959769364     -0.0000104611606084692     -0.0000092098694903589     -0.0000071899185886286     -0.0000042966554447655     -0.0000004706009846311     0.0000042479537636171     0.0000096295385729874     0.0000151742908018668     0.0000201150978841275     0.0000235683543919621     0.0000248126886717005     0.0000235683543919621     0.0000201150978841275     0.0000151742908018668     0.0000096295385729874     0.0000042479537636171     -0.0000004706009846311     -0.0000042966554447655     -0.0000071899185886287     -0.0000092098694903589     -0.0000104611606084692     -0.0000110769959769365     -0.0000112189407637734     -0.0000110695591184639     -0.0000108097174775443     -0.0000105893138043301     -0.0000105048744946548 
    -0.0000117285476324796     -0.0000117346284183993     -0.0000117102357309436     -0.0000115414225443892     -0.0000110769959769364     -0.0000101593209969040     -0.0000086275910607425     -0.0000062942236394061     -0.0000029216866398889     0.0000017666914006527     0.0000080147634602010     0.0000158878879225595     0.0000250760284421169     0.0000347276608203702     0.0000434519941454236     0.0000496065164857469     0.0000518343164144805     0.0000496065164857469     0.0000434519941454236     0.0000347276608203701     0.0000250760284421169     0.0000158878879225594     0.0000080147634602010     0.0000017666914006526     -0.0000029216866398890     -0.0000062942236394061     -0.0000086275910607425     -0.0000101593209969040     -0.0000110769959769364     -0.0000115414225443892     -0.0000117102357309436     -0.0000117346284183993     -0.0000117285476324796 
    -0.0000127346725043444     -0.0000126453153934488     -0.0000123253744979213     -0.0000116466516251802     -0.0000104611606084692     -0.0000086275910607425     -0.0000059700175024402     -0.0000021990595106156     0.0000031321650873469     0.0000105807480496902     0.0000206511187600412     0.0000335195631023865     0.0000486954732439636     0.0000662612978944877     0.0000858162799667715     0.0001012466726958491     0.0001071073421243698     0.0001012466726958491     0.0000858162799667715     0.0000662612978944877     0.0000486954732439636     0.0000335195631023864     0.0000206511187600412     0.0000105807480496902     0.0000031321650873469     -0.0000021990595106156     -0.0000059700175024402     -0.0000086275910607425     -0.0000104611606084692     -0.0000116466516251802     -0.0000123253744979213     -0.0000126453153934488     -0.0000127346725043444 
    -0.0000133902088845101     -0.0000131809199988016     -0.0000125004618433517     -0.0000112240107067381     -0.0000092098694903589     -0.0000062942236394061     -0.0000021990595106156     0.0000035767600067179     0.0000117778457890545     0.0000232615837243983     0.0000387176471737841     0.0000613714182341148     0.0000975141199124097     0.0001426473614399452     0.0001874339320898981     0.0002205810886717806     0.0002328244094053163     0.0002205810886717807     0.0001874339320898981     0.0001426473614399452     0.0000975141199124097     0.0000613714182341148     0.0000387176471737841     0.0000232615837243983     0.0000117778457890545     0.0000035767600067179     -0.0000021990595106156     -0.0000062942236394061     -0.0000092098694903589     -0.0000112240107067381     -0.0000125004618433518     -0.0000131809199988016     -0.0000133902088845101 
    -0.0000136168622387519     -0.0000132601271621993     -0.0000121481289338176     -0.0000101761225964656     -0.0000071899185886286     -0.0000029216866398890     0.0000031321650873469     0.0000117778457890545     0.0000240185525408099     0.0000408074613157684     0.0000713174123362603     0.0001230650767559845     0.0001933434944143450     0.0002731476624873664     0.0003481078030345764     0.0004019215594839498     0.0004215295374779285     0.0004019215594839498     0.0003481078030345763     0.0002731476624873664     0.0001933434944143449     0.0001230650767559844     0.0000713174123362603     0.0000408074613157684     0.0000240185525408099     0.0000117778457890545     0.0000031321650873469     -0.0000029216866398889     -0.0000071899185886286     -0.0000101761225964656     -0.0000121481289338176     -0.0000132601271621993     -0.0000136168622387519 
    -0.0000133893834459109     -0.0000128609113323683     -0.0000112509014671326     -0.0000084708763107156     -0.0000042966554447655     0.0000017666914006527     0.0000105807480496902     0.0000232615837243982     0.0000408074613157684     0.0000746514036395879     0.0001352941317414390     0.0002223482559646222     0.0003297109809726310     0.0004447424666563802     0.0005491922118513940     0.0006228269392197980     0.0006494491223754125     0.0006228269392197980     0.0005491922118513940     0.0004447424666563802     0.0003297109809726309     0.0002223482559646221     0.0001352941317414389     0.0000746514036395878     0.0000408074613157684     0.0000232615837243982     0.0000105807480496902     0.0000017666914006527     -0.0000042966554447655     -0.0000084708763107155     -0.0000112509014671326     -0.0000128609113323683     -0.0000133893834459109 
    -0.0000127334683825429     -0.0000120164636989919     -0.0000098530266016056     -0.0000061352757818780     -0.0000004706009846310     0.0000080147634602010     0.0000206511187600412     0.0000387176471737841     0.0000713174123362603     0.0001352941317414390     0.0002308544714326311     0.0003536993373025807     0.0004948536163730733     0.0006398605998396551     0.0007686698115151183     0.0008585974199814032     0.0008910004987354736     0.0008585974199814032     0.0007686698115151183     0.0006398605998396551     0.0004948536163730732     0.0003536993373025807     0.0002308544714326311     0.0001352941317414390     0.0000713174123362603     0.0000387176471737841     0.0000206511187600412     0.0000080147634602010     -0.0000004706009846311     -0.0000061352757818780     -0.0000098530266016056     -0.0000120164636989919     -0.0000127334683825429 
    -0.0000117277295756731     -0.0000108141329704003     -0.0000080562111697336     -0.0000032636646773660     0.0000042479537636171     0.0000158878879225595     0.0000335195631023865     0.0000613714182341149     0.0001230650767559844     0.0002223482559646222     0.0003536993373025808     0.0005086800511297995     0.0006770361025347405     0.0008449468038682008     0.0009925162403359286     0.0010954122504605211     0.0011325283065814539     0.0010954122504605211     0.0009925162403359286     0.0008449468038682008     0.0006770361025347405     0.0005086800511297995     0.0003536993373025807     0.0002223482559646221     0.0001230650767559844     0.0000613714182341149     0.0000335195631023865     0.0000158878879225594     0.0000042479537636171     -0.0000032636646773660     -0.0000080562111697335     -0.0000108141329704003     -0.0000117277295756731 
    -0.0000105052913057668     -0.0000093962793567533     -0.0000060246571408059     -0.0000000469404995269     0.0000096295385729874     0.0000250760284421169     0.0000486954732439636     0.0000975141199124097     0.0001933434944143449     0.0003297109809726310     0.0004948536163730733     0.0006770361025347407     0.0008668380444870761     0.0010531219261166690     0.0012169800383463403     0.0013319845637253681     0.0013736683235966620     0.0013319845637253681     0.0012169800383463403     0.0010531219261166688     0.0008668380444870761     0.0006770361025347406     0.0004948536163730733     0.0003297109809726310     0.0001933434944143449     0.0000975141199124097     0.0000486954732439636     0.0000250760284421169     0.0000096295385729874     -0.0000000469404995269     -0.0000060246571408058     -0.0000093962793567532     -0.0000105052913057668 
    -0.0000092455742421467     -0.0000079542238264578     -0.0000039891017171176     0.0000031974637741287     0.0000151742908018668     0.0000347276608203702     0.0000662612978944878     0.0001426473614399453     0.0002731476624873664     0.0004447424666563804     0.0006398605998396552     0.0008449468038682011     0.0010531219261166688     0.0012567813825744704     0.0014375885671350575     0.0015658409603358148     0.0016126143344071123     0.0015658409603358148     0.0014375885671350577     0.0012567813825744704     0.0010531219261166688     0.0008449468038682011     0.0006398605998396552     0.0004447424666563804     0.0002731476624873664     0.0001426473614399452     0.0000662612978944878     0.0000347276608203702     0.0000151742908018668     0.0000031974637741287     -0.0000039891017171176     -0.0000079542238264578     -0.0000092455742421467 
    -0.0000081500363244685     -0.0000067060985491430     -0.0000022304688500078     0.0000060346137330825     0.0000201150978841275     0.0000434519941454236     0.0000858162799667715     0.0001874339320898981     0.0003481078030345763     0.0005491922118513940     0.0007686698115151183     0.0009925162403359286     0.0012169800383463403     0.0014375885671350575     0.0016356820175682028     0.0017775676632597152     0.0018295745191558505     0.0017775676632597152     0.0016356820175682033     0.0014375885671350577     0.0012169800383463403     0.0009925162403359288     0.0007686698115151183     0.0005491922118513940     0.0003481078030345763     0.0001874339320898981     0.0000858162799667715     0.0000434519941454236     0.0000201150978841275     0.0000060346137330825     -0.0000022304688500078     -0.0000067060985491430     -0.0000081500363244685 
    -0.0000074046852422426     -0.0000058577342373311     -0.0000010313674218174     0.0000079909119313542     0.0000235683543919620     0.0000496065164857469     0.0001012466726958491     0.0002205810886717806     0.0004019215594839498     0.0006228269392197980     0.0008585974199814029     0.0010954122504605211     0.0013319845637253681     0.0015658409603358148     0.0017775676632597152     0.0019301384407618084     0.0019862239647795922     0.0019301384407618084     0.0017775676632597152     0.0015658409603358148     0.0013319845637253681     0.0010954122504605211     0.0008585974199814029     0.0006228269392197980     0.0004019215594839498     0.0002205810886717806     0.0001012466726958491     0.0000496065164857469     0.0000235683543919620     0.0000079909119313542     -0.0000010313674218175     -0.0000058577342373311     -0.0000074046852422426 
    -0.0000071405271393407     -0.0000055570055506992     -0.0000006050890100825     0.0000086909167019428     0.0000248126886717005     0.0000518343164144805     0.0001071073421243699     0.0002328244094053164     0.0004215295374779285     0.0006494491223754125     0.0008910004987354738     0.0011325283065814539     0.0013736683235966616     0.0016126143344071121     0.0018295745191558505     0.0019862239647795922     0.0020438604698237175     0.0019862239647795922     0.0018295745191558505     0.0016126143344071123     0.0013736683235966616     0.0011325283065814539     0.0008910004987354738     0.0006494491223754125     0.0004215295374779285     0.0002328244094053163     0.0001071073421243698     0.0000518343164144805     0.0000248126886717005     0.0000086909167019428     -0.0000006050890100824     -0.0000055570055506992     -0.0000071405271393407 
    -0.0000074046852422426     -0.0000058577342373311     -0.0000010313674218174     0.0000079909119313542     0.0000235683543919621     0.0000496065164857469     0.0001012466726958491     0.0002205810886717807     0.0004019215594839498     0.0006228269392197979     0.0008585974199814029     0.0010954122504605211     0.0013319845637253681     0.0015658409603358148     0.0017775676632597152     0.0019301384407618084     0.0019862239647795922     0.0019301384407618084     0.0017775676632597152     0.0015658409603358148     0.0013319845637253681     0.0010954122504605211     0.0008585974199814029     0.0006228269392197979     0.0004019215594839498     0.0002205810886717806     0.0001012466726958490     0.0000496065164857469     0.0000235683543919620     0.0000079909119313542     -0.0000010313674218174     -0.0000058577342373311     -0.0000074046852422426 
    -0.0000081500363244684     -0.0000067060985491429     -0.0000022304688500077     0.0000060346137330825     0.0000201150978841275     0.0000434519941454236     0.0000858162799667715     0.0001874339320898981     0.0003481078030345763     0.0005491922118513940     0.0007686698115151183     0.0009925162403359286     0.0012169800383463403     0.0014375885671350575     0.0016356820175682028     0.0017775676632597152     0.0018295745191558505     0.0017775676632597152     0.0016356820175682033     0.0014375885671350577     0.0012169800383463403     0.0009925162403359288     0.0007686698115151183     0.0005491922118513940     0.0003481078030345763     0.0001874339320898981     0.0000858162799667715     0.0000434519941454236     0.0000201150978841275     0.0000060346137330825     -0.0000022304688500078     -0.0000067060985491429     -0.0000081500363244684 
    -0.0000092455742421467     -0.0000079542238264578     -0.0000039891017171176     0.0000031974637741287     0.0000151742908018668     0.0000347276608203702     0.0000662612978944878     0.0001426473614399453     0.0002731476624873664     0.0004447424666563804     0.0006398605998396552     0.0008449468038682011     0.0010531219261166686     0.0012567813825744704     0.0014375885671350575     0.0015658409603358148     0.0016126143344071123     0.0015658409603358148     0.0014375885671350577     0.0012567813825744704     0.0010531219261166688     0.0008449468038682011     0.0006398605998396552     0.0004447424666563804     0.0002731476624873664     0.0001426473614399452     0.0000662612978944878     0.0000347276608203702     0.0000151742908018667     0.0000031974637741287     -0.0000039891017171176     -0.0000079542238264579     -0.0000092455742421467 
    -0.0000105052913057668     -0.0000093962793567533     -0.0000060246571408059     -0.0000000469404995269     0.0000096295385729874     0.0000250760284421169     0.0000486954732439636     0.0000975141199124098     0.0001933434944143449     0.0003297109809726310     0.0004948536163730733     0.0006770361025347406     0.0008668380444870761     0.0010531219261166688     0.0012169800383463403     0.0013319845637253681     0.0013736683235966620     0.0013319845637253681     0.0012169800383463403     0.0010531219261166690     0.0008668380444870761     0.0006770361025347407     0.0004948536163730733     0.0003297109809726309     0.0001933434944143449     0.0000975141199124097     0.0000486954732439636     0.0000250760284421169     0.0000096295385729874     -0.0000000469404995269     -0.0000060246571408059     -0.0000093962793567532     -0.0000105052913057668 
    -0.0000117277295756731     -0.0000108141329704003     -0.0000080562111697336     -0.0000032636646773660     0.0000042479537636171     0.0000158878879225595     0.0000335195631023865     0.0000613714182341149     0.0001230650767559845     0.0002223482559646222     0.0003536993373025808     0.0005086800511297995     0.0006770361025347405     0.0008449468038682008     0.0009925162403359286     0.0010954122504605211     0.0011325283065814539     0.0010954122504605211     0.0009925162403359286     0.0008449468038682008     0.0006770361025347405     0.0005086800511297995     0.0003536993373025808     0.0002223482559646221     0.0001230650767559844     0.0000613714182341149     0.0000335195631023865     0.0000158878879225594     0.0000042479537636171     -0.0000032636646773660     -0.0000080562111697336     -0.0000108141329704003     -0.0000117277295756731 
    -0.0000127334683825429     -0.0000120164636989919     -0.0000098530266016056     -0.0000061352757818780     -0.0000004706009846310     0.0000080147634602010     0.0000206511187600412     0.0000387176471737841     0.0000713174123362603     0.0001352941317414390     0.0002308544714326311     0.0003536993373025807     0.0004948536163730732     0.0006398605998396551     0.0007686698115151183     0.0008585974199814032     0.0008910004987354736     0.0008585974199814032     0.0007686698115151183     0.0006398605998396551     0.0004948536163730732     0.0003536993373025807     0.0002308544714326311     0.0001352941317414389     0.0000713174123362603     0.0000387176471737841     0.0000206511187600412     0.0000080147634602010     -0.0000004706009846311     -0.0000061352757818780     -0.0000098530266016056     -0.0000120164636989919     -0.0000127334683825429 
    -0.0000133893834459109     -0.0000128609113323682     -0.0000112509014671325     -0.0000084708763107155     -0.0000042966554447655     0.0000017666914006527     0.0000105807480496902     0.0000232615837243983     0.0000408074613157684     0.0000746514036395879     0.0001352941317414390     0.0002223482559646222     0.0003297109809726310     0.0004447424666563802     0.0005491922118513940     0.0006228269392197980     0.0006494491223754125     0.0006228269392197980     0.0005491922118513940     0.0004447424666563802     0.0003297109809726310     0.0002223482559646221     0.0001352941317414389     0.0000746514036395878     0.0000408074613157684     0.0000232615837243982     0.0000105807480496902     0.0000017666914006527     -0.0000042966554447655     -0.0000084708763107155     -0.0000112509014671326     -0.0000128609113323683     -0.0000133893834459109 
    -0.0000136168622387519     -0.0000132601271621993     -0.0000121481289338176     -0.0000101761225964656     -0.0000071899185886286     -0.0000029216866398890     0.0000031321650873469     0.0000117778457890545     0.0000240185525408099     0.0000408074613157684     0.0000713174123362603     0.0001230650767559845     0.0001933434944143449     0.0002731476624873664     0.0003481078030345764     0.0004019215594839498     0.0004215295374779285     0.0004019215594839498     0.0003481078030345764     0.0002731476624873664     0.0001933434944143449     0.0001230650767559844     0.0000713174123362603     0.0000408074613157684     0.0000240185525408099     0.0000117778457890545     0.0000031321650873469     -0.0000029216866398890     -0.0000071899185886286     -0.0000101761225964656     -0.0000121481289338176     -0.0000132601271621993     -0.0000136168622387519 
    -0.0000133902088845101     -0.0000131809199988016     -0.0000125004618433518     -0.0000112240107067382     -0.0000092098694903589     -0.0000062942236394061     -0.0000021990595106156     0.0000035767600067179     0.0000117778457890545     0.0000232615837243983     0.0000387176471737841     0.0000613714182341148     0.0000975141199124097     0.0001426473614399453     0.0001874339320898981     0.0002205810886717807     0.0002328244094053163     0.0002205810886717807     0.0001874339320898981     0.0001426473614399452     0.0000975141199124097     0.0000613714182341148     0.0000387176471737841     0.0000232615837243983     0.0000117778457890545     0.0000035767600067179     -0.0000021990595106156     -0.0000062942236394061     -0.0000092098694903589     -0.0000112240107067381     -0.0000125004618433518     -0.0000131809199988016     -0.0000133902088845101 
    -0.0000127346725043444     -0.0000126453153934488     -0.0000123253744979213     -0.0000116466516251802     -0.0000104611606084692     -0.0000086275910607425     -0.0000059700175024402     -0.0000021990595106156     0.0000031321650873469     0.0000105807480496902     0.0000206511187600412     0.0000335195631023865     0.0000486954732439636     0.0000662612978944878     0.0000858162799667715     0.0001012466726958491     0.0001071073421243699     0.0001012466726958491     0.0000858162799667715     0.0000662612978944878     0.0000486954732439636     0.0000335195631023864     0.0000206511187600412     0.0000105807480496902     0.0000031321650873469     -0.0000021990595106156     -0.0000059700175024402     -0.0000086275910607425     -0.0000104611606084692     -0.0000116466516251802     -0.0000123253744979213     -0.0000126453153934488     -0.0000127346725043444 
    -0.0000117285476324796     -0.0000117346284183993     -0.0000117102357309436     -0.0000115414225443892     -0.0000110769959769364     -0.0000101593209969040     -0.0000086275910607425     -0.0000062942236394061     -0.0000029216866398890     0.0000017666914006527     0.0000080147634602010     0.0000158878879225594     0.0000250760284421169     0.0000347276608203701     0.0000434519941454236     0.0000496065164857469     0.0000518343164144805     0.0000496065164857469     0.0000434519941454236     0.0000347276608203701     0.0000250760284421169     0.0000158878879225594     0.0000080147634602010     0.0000017666914006527     -0.0000029216866398890     -0.0000062942236394061     -0.0000086275910607425     -0.0000101593209969040     -0.0000110769959769364     -0.0000115414225443892     -0.0000117102357309436     -0.0000117346284183993     -0.0000117285476324796 
    -0.0000105048744946547     -0.0000105893138043300     -0.0000108097174775443     -0.0000110695591184639     -0.0000112189407637734     -0.0000110769959769364     -0.0000104611606084692     -0.0000092098694903589     -0.0000071899185886286     -0.0000042966554447655     -0.0000004706009846311     0.0000042479537636171     0.0000096295385729874     0.0000151742908018668     0.0000201150978841275     0.0000235683543919621     0.0000248126886717005     0.0000235683543919621     0.0000201150978841275     0.0000151742908018668     0.0000096295385729874     0.0000042479537636171     -0.0000004706009846310     -0.0000042966554447655     -0.0000071899185886286     -0.0000092098694903589     -0.0000104611606084692     -0.0000110769959769364     -0.0000112189407637734     -0.0000110695591184639     -0.0000108097174775443     -0.0000105893138043300     -0.0000105048744946547 
    -0.0000092432816409620     -0.0000093954602844092     -0.0000098220653265905     -0.0000104311248663970     -0.0000110695591184639     -0.0000115414225443892     -0.0000116466516251802     -0.0000112240107067382     -0.0000101761225964657     -0.0000084708763107156     -0.0000061352757818780     -0.0000032636646773661     -0.0000000469404995269     0.0000031974637741287     0.0000060346137330825     0.0000079909119313542     0.0000086909167019428     0.0000079909119313543     0.0000060346137330825     0.0000031974637741287     -0.0000000469404995269     -0.0000032636646773660     -0.0000061352757818780     -0.0000084708763107156     -0.0000101761225964657     -0.0000112240107067381     -0.0000116466516251802     -0.0000115414225443892     -0.0000110695591184639     -0.0000104311248663970     -0.0000098220653265905     -0.0000093954602844092     -0.0000092432816409620 
    -0.0000081457058240255     -0.0000083552773763751     -0.0000089488511343057     -0.0000098220653265904     -0.0000108097174775443     -0.0000117102357309436     -0.0000123253744979213     -0.0000125004618433518     -0.0000121481289338176     -0.0000112509014671326     -0.0000098530266016057     -0.0000080562111697336     -0.0000060246571408059     -0.0000039891017171176     -0.0000022304688500078     -0.0000010313674218174     -0.0000006050890100824     -0.0000010313674218174     -0.0000022304688500078     -0.0000039891017171176     -0.0000060246571408059     -0.0000080562111697336     -0.0000098530266016056     -0.0000112509014671326     -0.0000121481289338176     -0.0000125004618433517     -0.0000123253744979213     -0.0000117102357309436     -0.0000108097174775443     -0.0000098220653265905     -0.0000089488511343057     -0.0000083552773763751     -0.0000081457058240255 
    -0.0000073987728909155     -0.0000076487534938812     -0.0000083552773763751     -0.0000093954602844092     -0.0000105893138043300     -0.0000117346284183993     -0.0000126453153934487     -0.0000131809199988015     -0.0000132601271621993     -0.0000128609113323682     -0.0000120164636989919     -0.0000108141329704003     -0.0000093962793567532     -0.0000079542238264578     -0.0000067060985491429     -0.0000058577342373310     -0.0000055570055506992     -0.0000058577342373310     -0.0000067060985491429     -0.0000079542238264578     -0.0000093962793567532     -0.0000108141329704003     -0.0000120164636989919     -0.0000128609113323682     -0.0000132601271621993     -0.0000131809199988015     -0.0000126453153934487     -0.0000117346284183993     -0.0000105893138043300     -0.0000093954602844092     -0.0000083552773763751     -0.0000076487534938812     -0.0000073987728909155 
    -0.0000071340178212307     -0.0000073987728909155     -0.0000081457058240255     -0.0000092432816409619     -0.0000105048744946548     -0.0000117285476324796     -0.0000127346725043444     -0.0000133902088845101     -0.0000136168622387520     -0.0000133893834459109     -0.0000127334683825429     -0.0000117277295756731     -0.0000105052913057668     -0.0000092455742421467     -0.0000081500363244684     -0.0000074046852422425     -0.0000071405271393406     -0.0000074046852422425     -0.0000081500363244684     -0.0000092455742421467     -0.0000105052913057668     -0.0000117277295756731     -0.0000127334683825429     -0.0000133893834459109     -0.0000136168622387520     -0.0000133902088845101     -0.0000127346725043444     -0.0000117285476324796     -0.0000105048744946548     -0.0000092432816409620     -0.0000081457058240255     -0.0000073987728909155     -0.0000071340178212307 
    -0.0000055501177131205     -0.0000058516755261284     -0.0000067022524403236     -0.0000079532776455504     -0.0000093981027141460     -0.0000108179511080830     -0.0000120211959581509     -0.0000128655312755228     -0.0000132639487446545     -0.0000131837593691840     -0.0000126475066716557     -0.0000117368963023625     -0.0000105925288427546     -0.0000094003260992511     -0.0000083620335961719     -0.0000076570141513674     -0.0000074076073060638     -0.0000076570141513674     -0.0000083620335961719     -0.0000094003260992511     -0.0000105925288427546     -0.0000117368963023625     -0.0000126475066716557     -0.0000131837593691839     -0.0000132639487446545     -0.0000128655312755227     -0.0000120211959581509     -0.0000108179511080830     -0.0000093981027141460     -0.0000079532776455504     -0.0000067022524403236     -0.0000058516755261284     -0.0000055501177131205 
    -0.0000058516755261284     -0.0000061371912051823     -0.0000069440032375026     -0.0000081332603172706     -0.0000095060677109386     -0.0000108441125113201     -0.0000119495785466252     -0.0000126726936900441     -0.0000129232674393495     -0.0000126717525617844     -0.0000119482659104355     -0.0000108434071981306     -0.0000095070618844385     -0.0000081367815750130     -0.0000069502544875705     -0.0000061455585687333     -0.0000058608412248592     -0.0000061455582970247     -0.0000069502539798753     -0.0000081367808861411     -0.0000095070610697292     -0.0000108434063072813     -0.0000119482649943502     -0.0000126717516807749     -0.0000129232666605950     -0.0000126726930718716     -0.0000119495781182689     -0.0000108441122616619     -0.0000095060675951250     -0.0000081332602784510     -0.0000069440032300755     -0.0000061371912051823     -0.0000058516755261284 
    -0.0000067022524403236     -0.0000069440032300755     -0.0000076289552722747     -0.0000086395669404134     -0.0000097946616032233     -0.0000108784795262635     -0.0000116817194227105     -0.0000120403165680586     -0.0000118578995926620     -0.0000111097710323202     -0.0000098378347147455     -0.0000081477496679517     -0.0000062112470238984     -0.0000042639923871233     -0.0000025835436684126     -0.0000014406502267444     -0.0000010350839851406     -0.0000014406496913551     -0.0000025835426693397     -0.0000042639910357831     -0.0000062112454349519     -0.0000081477479452209     -0.0000098378329612887     -0.0000111097693640298     -0.0000118578981336294     -0.0000120403154228330     -0.0000116817186405159     -0.0000108784790814708     -0.0000097946614083447     -0.0000086395668865900     -0.0000076289552722746     -0.0000069440032375026     -0.0000067022524403236 
    -0.0000079532776455504     -0.0000081332602784510     -0.0000086395668865900     -0.0000093705617376810     -0.0000101608971116223     -0.0000108028038730095     -0.0000110860234191930     -0.0000108403027943762     -0.0000099603033233646     -0.0000084087748555745     -0.0000062128771158308     -0.0000034725519366864     -0.0000003856751963363     0.0000027291714391232     0.0000054477261060751     0.0000073178010446931     0.0000079859457521895     0.0000073178018431740     0.0000054477275912414     0.0000027291734337547     -0.0000003856728796918     -0.0000034725494688901     -0.0000062128746571656     -0.0000084087725697375     -0.0000099603013720426     -0.0000108403013048356     -0.0000110860224419470     -0.0000108028033594318     -0.0000101608969326385     -0.0000093705617376810     -0.0000086395669404134     -0.0000081332603172706     -0.0000079532776455504 
    -0.0000093981027141460     -0.0000095060675951250     -0.0000097946614083447     -0.0000101608969326384     -0.0000104459419609964     -0.0000104592648563440     -0.0000100094046288746     -0.0000089277677604245     -0.0000070770566398847     -0.0000043529224101699     -0.0000007013657840641     0.0000038288767306749     0.0000090033473072124     0.0000143296402256865     0.0000190666878452443     0.0000223714436981053     0.0000235609757051898     0.0000223714447836907     0.0000190666898526029     0.0000143296428889357     0.0000090033503372393     0.0000038288798645394     -0.0000007013627742121     -0.0000043529197258395     -0.0000070770544533884     -0.0000089277661885875     -0.0000100094036962669     -0.0000104592644768515     -0.0000104459419609964     -0.0000101608971116224     -0.0000097946616032233     -0.0000095060677109386     -0.0000093981027141460 
    -0.0000108179511080830     -0.0000108441122616619     -0.0000108784790814708     -0.0000108028033594318     -0.0000104592644768515     -0.0000096826080520409     -0.0000083059176258373     -0.0000061396959766983     -0.0000029503351533894     0.0000015288312430379     0.0000075275409930894     0.0000150988465474144     0.0000239325923729518     0.0000332011556748531     0.0000415673684883860     0.0000474621775827461     0.0000495945231771850     0.0000474621790049880     0.0000415673710968203     0.0000332011590777713     0.0000239325961355711     0.0000150988502798609     0.0000075275443881561     0.0000015288340764895     -0.0000029503330301185     -0.0000061396946303162     -0.0000083059170231599     -0.0000096826080520408     -0.0000104592648563440     -0.0000108028038730094     -0.0000108784795262635     -0.0000108441125113201     -0.0000108179511080830 
    -0.0000120211959581509     -0.0000119495781182689     -0.0000116817186405159     -0.0000110860224419470     -0.0000100094036962669     -0.0000083059170231600     -0.0000057992266976670     -0.0000022071938695462     0.0000029010176683965     0.0000100594827911050     0.0000197483627831936     0.0000321292798627422     0.0000467217640040286     0.0000631098293226555     0.0000813007848856005     0.0000957307859060515     0.0001012238357057707     0.0000957307877138782     0.0000813007881698553     0.0000631098335235799     0.0000467217684930294     0.0000321292840893887     0.0000197483663570943     0.0000100594854911053     0.0000029010194116845     -0.0000022071930580064     -0.0000057992266976670     -0.0000083059176258373     -0.0000100094046288746     -0.0000110860234191930     -0.0000116817194227105     -0.0000119495785466252     -0.0000120211959581509 
    -0.0000128655312755227     -0.0000126726930718716     -0.0000120403154228329     -0.0000108403013048356     -0.0000089277661885875     -0.0000061396946303162     -0.0000022071930580064     0.0000033510300022550     0.0000112502190264578     0.0000223144161952524     0.0000372059171812733     0.0000583729603217125     0.0000922411380717815     0.0001348639100968196     0.0001773500814825991     0.0002088742910906828     0.0002205314736010673     0.0002088742932833568     0.0001773500854253757     0.0001348639150328783     0.0000922411431479496     0.0000583729648131602     0.0000372059206299565     0.0000223144184232117     0.0000112502200636713     0.0000033510300022550     -0.0000022071938695462     -0.0000061396959766983     -0.0000089277677604245     -0.0000108403027943762     -0.0000120403165680587     -0.0000126726936900441     -0.0000128655312755227 
    -0.0000132639487446545     -0.0000129232666605950     -0.0000118578981336294     -0.0000099603013720426     -0.0000070770544533884     -0.0000029503330301184     0.0000029010194116845     0.0000112502200636714     0.0000230650263119357     0.0000392237927577009     0.0000676277037398491     0.0001164611408991241     0.0001832875185647997     0.0002595286348518507     0.0003313503019771973     0.0003829977197852709     0.0004018308391089590     0.0003829977222629735     0.0003313503063799412     0.0002595286402290833     0.0001832875238495677     0.0001164611452183906     0.0000676277066119473     0.0000392237941002997     0.0000230650263119357     0.0000112502190264578     0.0000029010176683965     -0.0000029503351533894     -0.0000070770566398847     -0.0000099603033233646     -0.0000118578995926620     -0.0000129232674393495     -0.0000132639487446545 
    -0.0000131837593691840     -0.0000126717516807748     -0.0000111097693640298     -0.0000084087725697374     -0.0000043529197258395     0.0000015288340764895     0.0000100594854911054     0.0000223144184232117     0.0000392237941002997     0.0000707604440449214     0.0001281536987601810     0.0002112439891764508     0.0003142700461722600     0.0004250345308274145     0.0005258208832959520     0.0005969564770163058     0.0006226885202995289     0.0005969564795638161     0.0005258208877498276     0.0004250345360882564     0.0003142700510250280     0.0002112439926765576     0.0001281537004756165     0.0000707604440449214     0.0000392237927577008     0.0000223144161952524     0.0000100594827911050     0.0000015288312430379     -0.0000043529224101699     -0.0000084087748555745     -0.0000111097710323202     -0.0000126717525617844     -0.0000131837593691840 
    -0.0000126475066716557     -0.0000119482649943502     -0.0000098378329612887     -0.0000062128746571655     -0.0000007013627742121     0.0000075275443881561     0.0000197483663570943     0.0000372059206299565     0.0000676277066119473     0.0001281537004756165     0.0002194989080859958     0.0003377077143920936     0.0004741279852865528     0.0006146394294724835     0.0007396292829668820     0.0008269469138650365     0.0008584171582145008     0.0008269469161927564     0.0007396292869326308     0.0006146394339097392     0.0004741279889447162     0.0003377077163695863     0.0002194989080859958     0.0001281536987601810     0.0000676277037398491     0.0000372059171812733     0.0000197483627831936     0.0000075275409930894     -0.0000007013657840641     -0.0000062128771158308     -0.0000098378347147455     -0.0000119482659104355     -0.0000126475066716557 
    -0.0000117368963023625     -0.0000108434063072813     -0.0000081477479452209     -0.0000034725494688901     0.0000038288798645394     0.0000150988502798609     0.0000321292840893887     0.0000583729648131602     0.0001164611452183906     0.0002112439926765576     0.0003377077163695863     0.0004878095680328006     0.0006514749173590727     0.0008150009410529039     0.0009587916914900644     0.0010590493382673721     0.0010952094226412325     0.0010590493401037840     0.0009587916944785159     0.0008150009440634681     0.0006514749192362307     0.0004878095680328006     0.0003377077143920936     0.0002112439891764508     0.0001164611408991241     0.0000583729603217125     0.0000321292798627422     0.0000150988465474144     0.0000038288767306749     -0.0000034725519366864     -0.0000081477496679517     -0.0000108434071981305     -0.0000117368963023625 
    -0.0000105925288427546     -0.0000095070610697292     -0.0000062112454349519     -0.0000003856728796918     0.0000090033503372393     0.0000239325961355711     0.0000467217684930294     0.0000922411431479496     0.0001832875238495678     0.0003142700510250280     0.0004741279889447163     0.0006514749192362307     0.0008368144091735521     0.0010188571177160892     0.0011788954673301840     0.0012911278978086683     0.0013317866754549996     0.0012911278990042053     0.0011788954691030048     0.0010188571190773350     0.0008368144091735520     0.0006514749173590726     0.0004741279852865529     0.0003142700461722600     0.0001832875185647997     0.0000922411380717815     0.0000467217640040286     0.0000239325923729518     0.0000090033473072124     -0.0000003856751963363     -0.0000062112470238984     -0.0000095070618844385     -0.0000105925288427546 
    -0.0000094003260992511     -0.0000081367808861411     -0.0000042639910357831     0.0000027291734337547     0.0000143296428889357     0.0000332011590777713     0.0000631098335235799     0.0001348639150328783     0.0002595286402290833     0.0004250345360882564     0.0006146394339097392     0.0008150009440634680     0.0010188571190773350     0.0012182089307963958     0.0013949076682861102     0.0015200641084523532     0.0015656733581721743     0.0015200641090394060     0.0013949076689632911     0.0012182089307963958     0.0010188571177160892     0.0008150009410529036     0.0006146394294724835     0.0004250345308274146     0.0002595286348518507     0.0001348639100968196     0.0000631098293226555     0.0000332011556748531     0.0000143296402256865     0.0000027291714391231     -0.0000042639923871233     -0.0000081367815750130     -0.0000094003260992511 
    -0.0000083620335961719     -0.0000069502539798754     -0.0000025835426693397     0.0000054477275912414     0.0000190666898526029     0.0000415673710968203     0.0000813007881698554     0.0001773500854253757     0.0003313503063799412     0.0005258208877498276     0.0007396292869326308     0.0009587916944785158     0.0011788954691030046     0.0013949076689632911     0.0015884193298595912     0.0017267744358773923     0.0017774427010377731     0.0017267744360472757     0.0015884193298595912     0.0013949076682861104     0.0011788954673301840     0.0009587916914900643     0.0007396292829668821     0.0005258208832959520     0.0003313503019771973     0.0001773500814825990     0.0000813007848856005     0.0000415673684883860     0.0000190666878452443     0.0000054477261060751     -0.0000025835436684126     -0.0000069502544875705     -0.0000083620335961719 
    -0.0000076570141513674     -0.0000061455582970248     -0.0000014406496913551     0.0000073178018431740     0.0000223714447836907     0.0000474621790049880     0.0000957307877138782     0.0002088742932833567     0.0003829977222629736     0.0005969564795638162     0.0008269469161927563     0.0010590493401037840     0.0012911278990042053     0.0015200641090394056     0.0017267744360472753     0.0018754462011171572     0.0019300498792404685     0.0018754462011171574     0.0017267744358773921     0.0015200641084523537     0.0012911278978086683     0.0010590493382673725     0.0008269469138650365     0.0005969564770163058     0.0003829977197852709     0.0002088742910906828     0.0000957307859060514     0.0000474621775827460     0.0000223714436981053     0.0000073178010446931     -0.0000014406502267444     -0.0000061455585687333     -0.0000076570141513674 
    -0.0000074076073060638     -0.0000058608412248592     -0.0000010350839851405     0.0000079859457521895     0.0000235609757051898     0.0000495945231771850     0.0001012238357057707     0.0002205314736010673     0.0004018308391089590     0.0006226885202995289     0.0008584171582145008     0.0010952094226412325     0.0013317866754549996     0.0015656733581721741     0.0017774427010377734     0.0019300498792404685     0.0019861496128634809     0.0019300498792404685     0.0017774427010377734     0.0015656733581721741     0.0013317866754549996     0.0010952094226412325     0.0008584171582145010     0.0006226885202995289     0.0004018308391089590     0.0002205314736010673     0.0001012238357057707     0.0000495945231771850     0.0000235609757051898     0.0000079859457521894     -0.0000010350839851406     -0.0000058608412248592     -0.0000074076073060638 
    -0.0000076570141513674     -0.0000061455585687333     -0.0000014406502267444     0.0000073178010446931     0.0000223714436981053     0.0000474621775827461     0.0000957307859060515     0.0002088742910906828     0.0003829977197852709     0.0005969564770163058     0.0008269469138650365     0.0010590493382673723     0.0012911278978086683     0.0015200641084523537     0.0017267744358773918     0.0018754462011171574     0.0019300498792404685     0.0018754462011171572     0.0017267744360472753     0.0015200641090394056     0.0012911278990042055     0.0010590493401037842     0.0008269469161927564     0.0005969564795638162     0.0003829977222629737     0.0002088742932833568     0.0000957307877138783     0.0000474621790049880     0.0000223714447836907     0.0000073178018431740     -0.0000014406496913551     -0.0000061455582970247     -0.0000076570141513674 
    -0.0000083620335961719     -0.0000069502544875705     -0.0000025835436684125     0.0000054477261060752     0.0000190666878452443     0.0000415673684883861     0.0000813007848856006     0.0001773500814825990     0.0003313503019771973     0.0005258208832959520     0.0007396292829668820     0.0009587916914900641     0.0011788954673301840     0.0013949076682861102     0.0015884193298595912     0.0017267744360472757     0.0017774427010377731     0.0017267744358773921     0.0015884193298595912     0.0013949076689632911     0.0011788954691030046     0.0009587916944785158     0.0007396292869326308     0.0005258208877498276     0.0003313503063799412     0.0001773500854253757     0.0000813007881698554     0.0000415673710968203     0.0000190666898526029     0.0000054477275912414     -0.0000025835426693397     -0.0000069502539798753     -0.0000083620335961719 
    -0.0000094003260992511     -0.0000081367815750130     -0.0000042639923871233     0.0000027291714391232     0.0000143296402256865     0.0000332011556748531     0.0000631098293226555     0.0001348639100968196     0.0002595286348518507     0.0004250345308274146     0.0006146394294724835     0.0008150009410529036     0.0010188571177160892     0.0012182089307963958     0.0013949076689632911     0.0015200641090394060     0.0015656733581721743     0.0015200641084523532     0.0013949076682861102     0.0012182089307963958     0.0010188571190773350     0.0008150009440634680     0.0006146394339097392     0.0004250345360882564     0.0002595286402290833     0.0001348639150328783     0.0000631098335235799     0.0000332011590777713     0.0000143296428889357     0.0000027291734337546     -0.0000042639910357831     -0.0000081367808861412     -0.0000094003260992511 
    -0.0000105925288427546     -0.0000095070618844385     -0.0000062112470238984     -0.0000003856751963363     0.0000090033473072124     0.0000239325923729518     0.0000467217640040287     0.0000922411380717815     0.0001832875185647997     0.0003142700461722600     0.0004741279852865528     0.0006514749173590726     0.0008368144091735520     0.0010188571190773350     0.0011788954691030048     0.0012911278990042053     0.0013317866754549996     0.0012911278978086683     0.0011788954673301840     0.0010188571177160892     0.0008368144091735521     0.0006514749192362307     0.0004741279889447162     0.0003142700510250280     0.0001832875238495678     0.0000922411431479495     0.0000467217684930294     0.0000239325961355711     0.0000090033503372392     -0.0000003856728796918     -0.0000062112454349519     -0.0000095070610697292     -0.0000105925288427546 
    -0.0000117368963023625     -0.0000108434071981306     -0.0000081477496679517     -0.0000034725519366864     0.0000038288767306749     0.0000150988465474144     0.0000321292798627422     0.0000583729603217125     0.0001164611408991241     0.0002112439891764508     0.0003377077143920936     0.0004878095680328006     0.0006514749192362308     0.0008150009440634681     0.0009587916944785159     0.0010590493401037840     0.0010952094226412325     0.0010590493382673721     0.0009587916914900644     0.0008150009410529038     0.0006514749173590727     0.0004878095680328006     0.0003377077163695863     0.0002112439926765576     0.0001164611452183905     0.0000583729648131601     0.0000321292840893887     0.0000150988502798609     0.0000038288798645393     -0.0000034725494688901     -0.0000081477479452209     -0.0000108434063072813     -0.0000117368963023625 
    -0.0000126475066716557     -0.0000119482659104355     -0.0000098378347147455     -0.0000062128771158308     -0.0000007013657840640     0.0000075275409930894     0.0000197483627831936     0.0000372059171812733     0.0000676277037398491     0.0001281536987601811     0.0002194989080859958     0.0003377077163695864     0.0004741279889447162     0.0006146394339097392     0.0007396292869326308     0.0008269469161927564     0.0008584171582145010     0.0008269469138650365     0.0007396292829668820     0.0006146394294724833     0.0004741279852865528     0.0003377077143920936     0.0002194989080859957     0.0001281537004756165     0.0000676277066119473     0.0000372059206299564     0.0000197483663570943     0.0000075275443881561     -0.0000007013627742121     -0.0000062128746571655     -0.0000098378329612887     -0.0000119482649943502     -0.0000126475066716557 
    -0.0000131837593691839     -0.0000126717525617844     -0.0000111097710323202     -0.0000084087748555744     -0.0000043529224101699     0.0000015288312430379     0.0000100594827911050     0.0000223144161952524     0.0000392237927577009     0.0000707604440449215     0.0001281537004756165     0.0002112439926765576     0.0003142700510250280     0.0004250345360882564     0.0005258208877498276     0.0005969564795638162     0.0006226885202995289     0.0005969564770163060     0.0005258208832959520     0.0004250345308274144     0.0003142700461722600     0.0002112439891764508     0.0001281536987601810     0.0000707604440449214     0.0000392237941002997     0.0000223144184232116     0.0000100594854911053     0.0000015288340764895     -0.0000043529197258396     -0.0000084087725697374     -0.0000111097693640298     -0.0000126717516807749     -0.0000131837593691839 
    -0.0000132639487446545     -0.0000129232674393495     -0.0000118578995926620     -0.0000099603033233646     -0.0000070770566398847     -0.0000029503351533894     0.0000029010176683966     0.0000112502190264578     0.0000230650263119357     0.0000392237941002997     0.0000676277066119473     0.0001164611452183906     0.0001832875238495678     0.0002595286402290834     0.0003313503063799412     0.0003829977222629735     0.0004018308391089590     0.0003829977197852709     0.0003313503019771973     0.0002595286348518506     0.0001832875185647997     0.0001164611408991240     0.0000676277037398491     0.0000392237927577008     0.0000230650263119357     0.0000112502200636713     0.0000029010194116845     -0.0000029503330301184     -0.0000070770544533884     -0.0000099603013720426     -0.0000118578981336294     -0.0000129232666605949     -0.0000132639487446545 
    -0.0000128655312755227     -0.0000126726936900441     -0.0000120403165680587     -0.0000108403027943762     -0.0000089277677604245     -0.0000061396959766983     -0.0000022071938695462     0.0000033510300022550     0.0000112502200636714     0.0000223144184232117     0.0000372059206299565     0.0000583729648131602     0.0000922411431479496     0.0001348639150328783     0.0001773500854253758     0.0002088742932833568     0.0002205314736010673     0.0002088742910906828     0.0001773500814825991     0.0001348639100968196     0.0000922411380717815     0.0000583729603217125     0.0000372059171812733     0.0000223144161952524     0.0000112502190264578     0.0000033510300022550     -0.0000022071930580063     -0.0000061396946303162     -0.0000089277661885874     -0.0000108403013048355     -0.0000120403154228329     -0.0000126726930718716     -0.0000128655312755227 
    -0.0000120211959581509     -0.0000119495785466252     -0.0000116817194227105     -0.0000110860234191930     -0.0000100094046288746     -0.0000083059176258373     -0.0000057992266976670     -0.0000022071930580064     0.0000029010194116844     0.0000100594854911053     0.0000197483663570943     0.0000321292840893888     0.0000467217684930295     0.0000631098335235799     0.0000813007881698554     0.0000957307877138783     0.0001012238357057707     0.0000957307859060515     0.0000813007848856005     0.0000631098293226555     0.0000467217640040286     0.0000321292798627422     0.0000197483627831936     0.0000100594827911050     0.0000029010176683965     -0.0000022071938695462     -0.0000057992266976670     -0.0000083059170231600     -0.0000100094036962669     -0.0000110860224419470     -0.0000116817186405159     -0.0000119495781182689     -0.0000120211959581509 
    -0.0000108179511080830     -0.0000108441125113201     -0.0000108784795262635     -0.0000108028038730095     -0.0000104592648563440     -0.0000096826080520409     -0.0000083059170231600     -0.0000061396946303162     -0.0000029503330301185     0.0000015288340764895     0.0000075275443881561     0.0000150988502798609     0.0000239325961355711     0.0000332011590777713     0.0000415673710968203     0.0000474621790049880     0.0000495945231771850     0.0000474621775827461     0.0000415673684883860     0.0000332011556748531     0.0000239325923729518     0.0000150988465474144     0.0000075275409930894     0.0000015288312430379     -0.0000029503351533894     -0.0000061396959766982     -0.0000083059176258373     -0.0000096826080520408     -0.0000104592644768515     -0.0000108028033594318     -0.0000108784790814708     -0.0000108441122616619     -0.0000108179511080830 
    -0.0000093981027141460     -0.0000095060677109386     -0.0000097946616032233     -0.0000101608971116224     -0.0000104459419609964     -0.0000104592644768515     -0.0000100094036962669     -0.0000089277661885875     -0.0000070770544533884     -0.0000043529197258396     -0.0000007013627742121     0.0000038288798645394     0.0000090033503372392     0.0000143296428889357     0.0000190666898526029     0.0000223714447836907     0.0000235609757051898     0.0000223714436981053     0.0000190666878452443     0.0000143296402256865     0.0000090033473072124     0.0000038288767306749     -0.0000007013657840641     -0.0000043529224101699     -0.0000070770566398847     -0.0000089277677604244     -0.0000100094046288746     -0.0000104592648563440     -0.0000104459419609964     -0.0000101608969326384     -0.0000097946614083447     -0.0000095060675951250     -0.0000093981027141460 
    -0.0000079532776455504     -0.0000081332603172706     -0.0000086395669404134     -0.0000093705617376810     -0.0000101608969326385     -0.0000108028033594318     -0.0000110860224419470     -0.0000108403013048356     -0.0000099603013720426     -0.0000084087725697375     -0.0000062128746571656     -0.0000034725494688901     -0.0000003856728796918     0.0000027291734337547     0.0000054477275912414     0.0000073178018431740     0.0000079859457521895     0.0000073178010446931     0.0000054477261060752     0.0000027291714391232     -0.0000003856751963363     -0.0000034725519366864     -0.0000062128771158308     -0.0000084087748555745     -0.0000099603033233646     -0.0000108403027943762     -0.0000110860234191930     -0.0000108028038730095     -0.0000101608971116223     -0.0000093705617376810     -0.0000086395668865900     -0.0000081332602784510     -0.0000079532776455504 
    -0.0000067022524403236     -0.0000069440032375026     -0.0000076289552722746     -0.0000086395668865900     -0.0000097946614083447     -0.0000108784790814708     -0.0000116817186405159     -0.0000120403154228330     -0.0000118578981336294     -0.0000111097693640299     -0.0000098378329612888     -0.0000081477479452209     -0.0000062112454349519     -0.0000042639910357831     -0.0000025835426693397     -0.0000014406496913551     -0.0000010350839851406     -0.0000014406502267444     -0.0000025835436684126     -0.0000042639923871233     -0.0000062112470238984     -0.0000081477496679517     -0.0000098378347147455     -0.0000111097710323202     -0.0000118578995926619     -0.0000120403165680586     -0.0000116817194227104     -0.0000108784795262635     -0.0000097946616032233     -0.0000086395669404133     -0.0000076289552722746     -0.0000069440032300755     -0.0000067022524403236 
    -0.0000058516755261284     -0.0000061371912051823     -0.0000069440032300755     -0.0000081332602784510     -0.0000095060675951250     -0.0000108441122616619     -0.0000119495781182690     -0.0000126726930718716     -0.0000129232666605950     -0.0000126717516807749     -0.0000119482649943502     -0.0000108434063072813     -0.0000095070610697292     -0.0000081367808861411     -0.0000069502539798754     -0.0000061455582970247     -0.0000058608412248592     -0.0000061455585687333     -0.0000069502544875705     -0.0000081367815750130     -0.0000095070618844385     -0.0000108434071981306     -0.0000119482659104355     -0.0000126717525617844     -0.0000129232674393495     -0.0000126726936900441     -0.0000119495785466252     -0.0000108441125113201     -0.0000095060677109386     -0.0000081332603172706     -0.0000069440032375026     -0.0000061371912051823     -0.0000058516755261284 
    -0.0000055501177131205     -0.0000058516755261284     -0.0000067022524403236     -0.0000079532776455504     -0.0000093981027141460     -0.0000108179511080830     -0.0000120211959581509     -0.0000128655312755228     -0.0000132639487446545     -0.0000131837593691840     -0.0000126475066716557     -0.0000117368963023625     -0.0000105925288427546     -0.0000094003260992511     -0.0000083620335961719     -0.0000076570141513674     -0.0000074076073060638     -0.0000076570141513674     -0.0000083620335961719     -0.0000094003260992511     -0.0000105925288427546     -0.0000117368963023625     -0.0000126475066716557     -0.0000131837593691839     -0.0000132639487446545     -0.0000128655312755227     -0.0000120211959581509     -0.0000108179511080830     -0.0000093981027141460     -0.0000079532776455504     -0.0000067022524403236     -0.0000058516755261284     -0.0000055501177131205 
    -0.0000005969157455737     -0.0000010247654901655     -0.0000022280856159726     -0.0000039923313175281     -0.0000060334233148675     -0.0000080692708788691     -0.0000098685450124968     -0.0000112670358091101     -0.0000121634694227283     -0.0000125142785980666     -0.0000123376682211656     -0.0000117216097427302     -0.0000108211022084262     -0.0000098343485408816     -0.0000089625100663919     -0.0000083701559322449     -0.0000081610691495207     -0.0000083701559322449     -0.0000089625100663918     -0.0000098343485408815     -0.0000108211022084262     -0.0000117216097427302     -0.0000123376682211656     -0.0000125142785980666     -0.0000121634694227283     -0.0000112670358091101     -0.0000098685450124968     -0.0000080692708788692     -0.0000060334233148675     -0.0000039923313175281     -0.0000022280856159726     -0.0000010247654901655     -0.0000005969157455737 
    -0.0000010247654901655     -0.0000014318474892226     -0.0000025788004496887     -0.0000042646187414845     -0.0000062171114121374     -0.0000081575892161595     -0.0000098498365307975     -0.0000111221635762063     -0.0000118694002107880     -0.0000120503779920871     -0.0000116905658915025     -0.0000108869466082488     -0.0000098038726782482     -0.0000086505065265040     -0.0000076420500846093     -0.0000069588782235043     -0.0000067178166082896     -0.0000069588777062685     -0.0000076420491123261     -0.0000086505051964673     -0.0000098038710926102     -0.0000108869448637607     -0.0000116905640900448     -0.0000120503762527955     -0.0000118693986639215     -0.0000111221623347462     -0.0000098498356542332     -0.0000081575886894371     -0.0000062171111556676     -0.0000042646186487476     -0.0000025788004298325     -0.0000014318474892226     -0.0000010247654901655 
    -0.0000022280856159726     -0.0000025788004298325     -0.0000035702200792180     -0.0000050327409741988     -0.0000067228912137284     -0.0000083723090027038     -0.0000097366274235971     -0.0000106299026350189     -0.0000109395688779842     -0.0000106286477351359     -0.0000097350213195881     -0.0000083719121941952     -0.0000067254547765000     -0.0000050395940107809     -0.0000035816706504737     -0.0000025938057679236     -0.0000022444309444984     -0.0000025938047483982     -0.0000035816687368140     -0.0000050395914016804     -0.0000067254516842917     -0.0000083719088209155     -0.0000097350178714790     -0.0000106286444420288     -0.0000109395659819319     -0.0000106299003398748     -0.0000097366258305772     -0.0000083723080735194     -0.0000067228907906295     -0.0000050327408506061     -0.0000035702200792180     -0.0000025788004496887     -0.0000022280856159726 
    -0.0000039923313175281     -0.0000042646186487476     -0.0000050327408506061     -0.0000061561034762179     -0.0000074214081914589     -0.0000085782652050390     -0.0000093856117699516     -0.0000096523606182597     -0.0000092583198984520     -0.0000081575371727783     -0.0000063782837064951     -0.0000040318563525067     -0.0000013291460736526     0.0000014129324623843     0.0000037999740956870     0.0000054341608732682     0.0000060161081989788     0.0000054341623926170     0.0000037999769372488     0.0000014129363077119     -0.0000013291415730011     -0.0000040318515280390     -0.0000063782788779916     -0.0000081575326662446     -0.0000092583160321442     -0.0000096523576432533     -0.0000093856097931135     -0.0000085782641459596     -0.0000074214078120878     -0.0000061561034762179     -0.0000050327409741988     -0.0000042646187414846     -0.0000039923313175281 
    -0.0000060334233148675     -0.0000062171111556676     -0.0000067228907906295     -0.0000074214078120878     -0.0000081195833036671     -0.0000085938268512928     -0.0000086270753722996     -0.0000080348213538636     -0.0000066735151023847     -0.0000044427565481722     -0.0000013027585988212     0.0000026789510177311     0.0000072599499229730     0.0000119724861888746     0.0000161469958956130     0.0000190468730431427     0.0000200879515367851     0.0000190468751025930     0.0000161469997223565     0.0000119724913009508     0.0000072599557817836     0.0000026789571165634     -0.0000013027527110626     -0.0000044427512738234     -0.0000066735107849682     -0.0000080348182291206     -0.0000086270735001489     -0.0000085938260789645     -0.0000081195833036670     -0.0000074214081914589     -0.0000067228912137284     -0.0000062171114121374     -0.0000060334233148675 
    -0.0000080692708788691     -0.0000081575886894371     -0.0000083723080735194     -0.0000085782641459596     -0.0000085938260789645     -0.0000082292920202577     -0.0000073006977952991     -0.0000056155851635485     -0.0000029539791860437     0.0000009221880455910     0.0000062057772655928     0.0000129203963504191     0.0000207604713633820     0.0000289671433399930     0.0000363497391749304     0.0000415358125823560     0.0000434085386984044     0.0000415358152663844     0.0000363497441168804     0.0000289671498243331     0.0000207604785805026     0.0000129204035563909     0.0000062057838593107     0.0000009221935789171     -0.0000029539750163392     -0.0000056155825025727     -0.0000073006965948187     -0.0000082292920202577     -0.0000085938268512928     -0.0000085782652050390     -0.0000083723090027038     -0.0000081575892161595     -0.0000080692708788691 
    -0.0000098685450124968     -0.0000098498356542332     -0.0000097366258305772     -0.0000093856097931135     -0.0000086270735001489     -0.0000073006965948187     -0.0000052289062044946     -0.0000021504986952676     0.0000023202510394447     0.0000086545637612885     0.0000172683795117952     0.0000282868237534467     0.0000412607447318897     0.0000550225029597703     0.0000695301217162610     0.0000812446587324745     0.0000857377112021330     0.0000812446621237437     0.0000695301278936326     0.0000550225108944211     0.0000412607532559594     0.0000282868318283076     0.0000172683863841624     0.0000086545689881851     0.0000023202544374187     -0.0000021504971023541     -0.0000052289062044946     -0.0000073006977952991     -0.0000086270753722995     -0.0000093856117699516     -0.0000097366274235971     -0.0000098498365307975     -0.0000098685450124968 
    -0.0000112670358091101     -0.0000111221623347462     -0.0000106299003398748     -0.0000096523576432533     -0.0000080348182291206     -0.0000056155825025728     -0.0000021504971023541     0.0000027870847673298     0.0000098318334873834     0.0000197173058112927     0.0000330329469080182     0.0000506179859524808     0.0000783076007384304     0.0001140462859061385     0.0001501913691176160     0.0001772292524968602     0.0001872641563431082     0.0001772292565910687     0.0001501913764883512     0.0001140462951541167     0.0000783076102820766     0.0000506179944385735     0.0000330329534656273     0.0000197173100798393     0.0000098318354909636     0.0000027870847673298     -0.0000021504986952676     -0.0000056155851635485     -0.0000080348213538635     -0.0000096523606182597     -0.0000106299026350189     -0.0000111221635762063     -0.0000112670358091101 
    -0.0000121634694227283     -0.0000118693986639215     -0.0000109395659819319     -0.0000092583160321442     -0.0000066735107849682     -0.0000029539750163392     0.0000023202544374187     0.0000098318354909636     0.0000204512655743597     0.0000349863737899021     0.0000579647616702165     0.0000988218170180881     0.0001561104952952814     0.0002224529577897623     0.0002855272176621436     0.0003311257547338709     0.0003477935355534622     0.0003311257593546121     0.0002855272258688154     0.0002224529678117402     0.0001561105051556449     0.0000988218251013066     0.0000579647670739297     0.0000349863763351346     0.0000204512655743596     0.0000098318334873834     0.0000023202510394446     -0.0000029539791860437     -0.0000066735151023846     -0.0000092583198984521     -0.0000109395688779843     -0.0000118694002107879     -0.0000121634694227283 
    -0.0000125142785980666     -0.0000120503762527955     -0.0000106286444420288     -0.0000081575326662447     -0.0000044427512738234     0.0000009221935789171     0.0000086545689881851     0.0000197173100798393     0.0000349863763351347     0.0000605380895335396     0.0001090043734870717     0.0001810945129327566     0.0002720161130387933     0.0003708342202884401     0.0004613493551629541     0.0005254737342556730     0.0005487079765431019     0.0005254737390238951     0.0004613493634798592     0.0003708342300856602     0.0002720161220602212     0.0001810945194422108     0.0001090043766882490     0.0000605380895335396     0.0000349863737899021     0.0000197173058112927     0.0000086545637612885     0.0000009221880455910     -0.0000044427565481722     -0.0000081575371727783     -0.0000106286477351360     -0.0000120503779920871     -0.0000125142785980666 
    -0.0000123376682211656     -0.0000116905640900448     -0.0000097350178714790     -0.0000063782788779916     -0.0000013027527110626     0.0000062057838593107     0.0000172683863841624     0.0000330329534656274     0.0000579647670739297     0.0001090043766882490     0.0001886252190006087     0.0002938518603599211     0.0004169804964405104     0.0005448734354100489     0.0006591593456027938     0.0007391731173607295     0.0007680349594501562     0.0007391731217571928     0.0006591593530612270     0.0005448734437096227     0.0004169805032492703     0.0002938518640305844     0.0001886252190006086     0.0001090043734870716     0.0000579647616702165     0.0000330329469080182     0.0000172683795117952     0.0000062057772655928     -0.0000013027585988212     -0.0000063782837064952     -0.0000097350213195880     -0.0000116905658915025     -0.0000123376682211656 
    -0.0000117216097427302     -0.0000108869448637608     -0.0000083719088209156     -0.0000040318515280390     0.0000026789571165634     0.0000129204035563910     0.0000282868318283076     0.0000506179944385735     0.0000988218251013066     0.0001810945194422109     0.0002938518640305844     0.0004302213721644080     0.0005807133508971659     0.0007320001324312159     0.0008653078131512781     0.0009582753550350618     0.0009917987225487707     0.0009582753585518623     0.0008653078188394294     0.0007320001381143918     0.0005807133544117778     0.0004302213721644079     0.0002938518603599211     0.0001810945129327566     0.0000988218170180881     0.0000506179859524808     0.0000282868237534466     0.0000129203963504192     0.0000026789510177311     -0.0000040318563525067     -0.0000083719121941952     -0.0000108869466082488     -0.0000117216097427302 
    -0.0000108211022084263     -0.0000098038710926103     -0.0000067254516842917     -0.0000013291415730011     0.0000072599557817836     0.0000207604785805026     0.0000412607532559593     0.0000783076102820765     0.0001561105051556449     0.0002720161220602212     0.0004169805032492703     0.0005807133544117779     0.0007536198614530121     0.0009240118791749521     0.0010736618355861429     0.0011783900089752128     0.0012162782162151967     0.0011783900113033821     0.0010736618390121088     0.0009240118817774966     0.0007536198614530119     0.0005807133508971658     0.0004169804964405103     0.0002720161130387933     0.0001561104952952814     0.0000783076007384304     0.0000412607447318897     0.0000207604713633820     0.0000072599499229730     -0.0000013291460736527     -0.0000067254547765000     -0.0000098038726782482     -0.0000108211022084263 
    -0.0000098343485408815     -0.0000086505051964673     -0.0000050395914016804     0.0000014129363077119     0.0000119724913009508     0.0000289671498243332     0.0000550225108944212     0.0001140462951541168     0.0002224529678117402     0.0003708342300856602     0.0005448734437096227     0.0007320001381143918     0.0009240118817774966     0.0011117890961018589     0.0012775504129902513     0.0013944794964978714     0.0014369940587049272     0.0013944794976607265     0.0012775504143198897     0.0011117890961018584     0.0009240118791749520     0.0007320001324312159     0.0005448734354100490     0.0003708342202884401     0.0002224529577897623     0.0001140462859061385     0.0000550225029597703     0.0000289671433399930     0.0000119724861888746     0.0000014129324623843     -0.0000050395940107809     -0.0000086505065265040     -0.0000098343485408815 
    -0.0000089625100663918     -0.0000076420491123261     -0.0000035816687368140     0.0000037999769372488     0.0000161469997223566     0.0000363497441168804     0.0000695301278936327     0.0001501913764883512     0.0002855272258688154     0.0004613493634798593     0.0006591593530612269     0.0008653078188394295     0.0010736618390121088     0.0012775504143198902     0.0014590344811876573     0.0015881015748363521     0.0016352402746363565     0.0015881015751777929     0.0014590344811876571     0.0012775504129902517     0.0010736618355861429     0.0008653078131512784     0.0006591593456027938     0.0004613493551629541     0.0002855272176621436     0.0001501913691176160     0.0000695301217162611     0.0000363497391749304     0.0000161469958956130     0.0000037999740956870     -0.0000035816706504737     -0.0000076420500846093     -0.0000089625100663918 
    -0.0000083701559322448     -0.0000069588777062685     -0.0000025938047483982     0.0000054341623926171     0.0000190468751025931     0.0000415358152663844     0.0000812446621237438     0.0001772292565910687     0.0003311257593546121     0.0005254737390238953     0.0007391731217571928     0.0009582753585518624     0.0011783900113033819     0.0013944794976607265     0.0015881015751777929     0.0017265515739254996     0.0017772569939833219     0.0017265515739254996     0.0015881015748363521     0.0013944794964978718     0.0011783900089752130     0.0009582753550350618     0.0007391731173607295     0.0005254737342556730     0.0003311257547338709     0.0001772292524968602     0.0000812446587324744     0.0000415358125823560     0.0000190468730431427     0.0000054341608732682     -0.0000025938057679236     -0.0000069588782235043     -0.0000083701559322448 
    -0.0000081610691495206     -0.0000067178166082896     -0.0000022444309444984     0.0000060161081989788     0.0000200879515367851     0.0000434085386984044     0.0000857377112021330     0.0001872641563431081     0.0003477935355534622     0.0005487079765431019     0.0007680349594501562     0.0009917987225487705     0.0012162782162151965     0.0014369940587049275     0.0016352402746363565     0.0017772569939833219     0.0018293151336774309     0.0017772569939833219     0.0016352402746363565     0.0014369940587049275     0.0012162782162151965     0.0009917987225487707     0.0007680349594501562     0.0005487079765431019     0.0003477935355534622     0.0001872641563431081     0.0000857377112021330     0.0000434085386984044     0.0000200879515367851     0.0000060161081989788     -0.0000022444309444984     -0.0000067178166082896     -0.0000081610691495206 
    -0.0000083701559322448     -0.0000069588782235043     -0.0000025938057679236     0.0000054341608732682     0.0000190468730431427     0.0000415358125823560     0.0000812446587324745     0.0001772292524968602     0.0003311257547338709     0.0005254737342556731     0.0007391731173607295     0.0009582753550350616     0.0011783900089752128     0.0013944794964978718     0.0015881015748363519     0.0017265515739254996     0.0017772569939833219     0.0017265515739254996     0.0015881015751777929     0.0013944794976607268     0.0011783900113033819     0.0009582753585518624     0.0007391731217571930     0.0005254737390238953     0.0003311257593546119     0.0001772292565910686     0.0000812446621237437     0.0000415358152663844     0.0000190468751025930     0.0000054341623926170     -0.0000025938047483982     -0.0000069588777062685     -0.0000083701559322448 
    -0.0000089625100663918     -0.0000076420500846092     -0.0000035816706504737     0.0000037999740956870     0.0000161469958956130     0.0000363497391749305     0.0000695301217162611     0.0001501913691176159     0.0002855272176621436     0.0004613493551629542     0.0006591593456027938     0.0008653078131512784     0.0010736618355861429     0.0012775504129902515     0.0014590344811876571     0.0015881015751777929     0.0016352402746363565     0.0015881015748363521     0.0014590344811876573     0.0012775504143198902     0.0010736618390121090     0.0008653078188394295     0.0006591593530612269     0.0004613493634798593     0.0002855272258688154     0.0001501913764883512     0.0000695301278936326     0.0000363497441168804     0.0000161469997223565     0.0000037999769372488     -0.0000035816687368141     -0.0000076420491123261     -0.0000089625100663918 
    -0.0000098343485408815     -0.0000086505065265040     -0.0000050395940107809     0.0000014129324623843     0.0000119724861888746     0.0000289671433399930     0.0000550225029597703     0.0001140462859061385     0.0002224529577897623     0.0003708342202884401     0.0005448734354100490     0.0007320001324312159     0.0009240118791749520     0.0011117890961018584     0.0012775504143198897     0.0013944794976607265     0.0014369940587049272     0.0013944794964978718     0.0012775504129902513     0.0011117890961018589     0.0009240118817774966     0.0007320001381143918     0.0005448734437096226     0.0003708342300856602     0.0002224529678117402     0.0001140462951541168     0.0000550225108944212     0.0000289671498243331     0.0000119724913009508     0.0000014129363077119     -0.0000050395914016804     -0.0000086505051964673     -0.0000098343485408815 
    -0.0000108211022084262     -0.0000098038726782482     -0.0000067254547764999     -0.0000013291460736526     0.0000072599499229730     0.0000207604713633820     0.0000412607447318897     0.0000783076007384304     0.0001561104952952814     0.0002720161130387934     0.0004169804964405103     0.0005807133508971658     0.0007536198614530119     0.0009240118817774966     0.0010736618390121088     0.0011783900113033821     0.0012162782162151967     0.0011783900089752128     0.0010736618355861429     0.0009240118791749521     0.0007536198614530121     0.0005807133544117779     0.0004169805032492703     0.0002720161220602212     0.0001561105051556449     0.0000783076102820766     0.0000412607532559593     0.0000207604785805026     0.0000072599557817836     -0.0000013291415730011     -0.0000067254516842917     -0.0000098038710926103     -0.0000108211022084262 
    -0.0000117216097427302     -0.0000108869466082488     -0.0000083719121941952     -0.0000040318563525067     0.0000026789510177311     0.0000129203963504192     0.0000282868237534467     0.0000506179859524808     0.0000988218170180881     0.0001810945129327567     0.0002938518603599211     0.0004302213721644079     0.0005807133544117778     0.0007320001381143918     0.0008653078188394294     0.0009582753585518624     0.0009917987225487707     0.0009582753550350616     0.0008653078131512781     0.0007320001324312159     0.0005807133508971659     0.0004302213721644079     0.0002938518640305843     0.0001810945194422108     0.0000988218251013066     0.0000506179944385735     0.0000282868318283076     0.0000129204035563909     0.0000026789571165634     -0.0000040318515280390     -0.0000083719088209156     -0.0000108869448637607     -0.0000117216097427302 
    -0.0000123376682211656     -0.0000116905658915026     -0.0000097350213195881     -0.0000063782837064951     -0.0000013027585988212     0.0000062057772655928     0.0000172683795117952     0.0000330329469080182     0.0000579647616702165     0.0001090043734870717     0.0001886252190006087     0.0002938518640305844     0.0004169805032492703     0.0005448734437096227     0.0006591593530612270     0.0007391731217571930     0.0007680349594501562     0.0007391731173607295     0.0006591593456027938     0.0005448734354100489     0.0004169804964405103     0.0002938518603599211     0.0001886252190006086     0.0001090043766882489     0.0000579647670739296     0.0000330329534656273     0.0000172683863841623     0.0000062057838593107     -0.0000013027527110626     -0.0000063782788779916     -0.0000097350178714790     -0.0000116905640900448     -0.0000123376682211656 
    -0.0000125142785980666     -0.0000120503779920871     -0.0000106286477351359     -0.0000081575371727782     -0.0000044427565481722     0.0000009221880455910     0.0000086545637612885     0.0000197173058112927     0.0000349863737899021     0.0000605380895335396     0.0001090043766882490     0.0001810945194422109     0.0002720161220602212     0.0003708342300856602     0.0004613493634798593     0.0005254737390238952     0.0005487079765431020     0.0005254737342556730     0.0004613493551629541     0.0003708342202884401     0.0002720161130387933     0.0001810945129327566     0.0001090043734870716     0.0000605380895335396     0.0000349863763351347     0.0000197173100798393     0.0000086545689881851     0.0000009221935789171     -0.0000044427512738234     -0.0000081575326662446     -0.0000106286444420288     -0.0000120503762527954     -0.0000125142785980666 
    -0.0000121634694227283     -0.0000118694002107880     -0.0000109395688779842     -0.0000092583198984520     -0.0000066735151023846     -0.0000029539791860437     0.0000023202510394447     0.0000098318334873834     0.0000204512655743597     0.0000349863763351347     0.0000579647670739297     0.0000988218251013066     0.0001561105051556449     0.0002224529678117402     0.0002855272258688154     0.0003311257593546121     0.0003477935355534622     0.0003311257547338709     0.0002855272176621436     0.0002224529577897623     0.0001561104952952814     0.0000988218170180881     0.0000579647616702165     0.0000349863737899021     0.0000204512655743596     0.0000098318354909636     0.0000023202544374187     -0.0000029539750163392     -0.0000066735107849682     -0.0000092583160321442     -0.0000109395659819320     -0.0000118693986639215     -0.0000121634694227283 
    -0.0000112670358091101     -0.0000111221635762063     -0.0000106299026350190     -0.0000096523606182597     -0.0000080348213538636     -0.0000056155851635485     -0.0000021504986952676     0.0000027870847673298     0.0000098318354909637     0.0000197173100798393     0.0000330329534656274     0.0000506179944385736     0.0000783076102820766     0.0001140462951541168     0.0001501913764883511     0.0001772292565910686     0.0001872641563431081     0.0001772292524968602     0.0001501913691176159     0.0001140462859061384     0.0000783076007384304     0.0000506179859524808     0.0000330329469080182     0.0000197173058112927     0.0000098318334873834     0.0000027870847673298     -0.0000021504971023541     -0.0000056155825025727     -0.0000080348182291206     -0.0000096523576432533     -0.0000106299003398748     -0.0000111221623347462     -0.0000112670358091101 
    -0.0000098685450124968     -0.0000098498365307975     -0.0000097366274235971     -0.0000093856117699516     -0.0000086270753722995     -0.0000073006977952991     -0.0000052289062044946     -0.0000021504971023541     0.0000023202544374187     0.0000086545689881851     0.0000172683863841624     0.0000282868318283076     0.0000412607532559594     0.0000550225108944212     0.0000695301278936326     0.0000812446621237437     0.0000857377112021330     0.0000812446587324745     0.0000695301217162610     0.0000550225029597702     0.0000412607447318897     0.0000282868237534466     0.0000172683795117952     0.0000086545637612885     0.0000023202510394447     -0.0000021504986952676     -0.0000052289062044946     -0.0000073006965948187     -0.0000086270735001489     -0.0000093856097931135     -0.0000097366258305772     -0.0000098498356542332     -0.0000098685450124968 
    -0.0000080692708788691     -0.0000081575892161595     -0.0000083723090027038     -0.0000085782652050390     -0.0000085938268512928     -0.0000082292920202577     -0.0000073006965948187     -0.0000056155825025727     -0.0000029539750163392     0.0000009221935789171     0.0000062057838593107     0.0000129204035563909     0.0000207604785805026     0.0000289671498243331     0.0000363497441168804     0.0000415358152663844     0.0000434085386984044     0.0000415358125823560     0.0000363497391749304     0.0000289671433399930     0.0000207604713633820     0.0000129203963504192     0.0000062057772655928     0.0000009221880455910     -0.0000029539791860437     -0.0000056155851635485     -0.0000073006977952991     -0.0000082292920202577     -0.0000085938260789645     -0.0000085782641459596     -0.0000083723080735194     -0.0000081575886894371     -0.0000080692708788691 
    -0.0000060334233148675     -0.0000062171114121374     -0.0000067228912137284     -0.0000074214081914589     -0.0000081195833036671     -0.0000085938260789645     -0.0000086270735001489     -0.0000080348182291206     -0.0000066735107849682     -0.0000044427512738234     -0.0000013027527110626     0.0000026789571165634     0.0000072599557817836     0.0000119724913009507     0.0000161469997223565     0.0000190468751025930     0.0000200879515367851     0.0000190468730431427     0.0000161469958956130     0.0000119724861888746     0.0000072599499229730     0.0000026789510177311     -0.0000013027585988212     -0.0000044427565481722     -0.0000066735151023847     -0.0000080348213538636     -0.0000086270753722996     -0.0000085938268512928     -0.0000081195833036671     -0.0000074214078120878     -0.0000067228907906295     -0.0000062171111556676     -0.0000060334233148675 
    -0.0000039923313175281     -0.0000042646187414845     -0.0000050327409741988     -0.0000061561034762179     -0.0000074214078120878     -0.0000085782641459596     -0.0000093856097931135     -0.0000096523576432533     -0.0000092583160321442     -0.0000081575326662446     -0.0000063782788779916     -0.0000040318515280390     -0.0000013291415730011     0.0000014129363077119     0.0000037999769372488     0.0000054341623926170     0.0000060161081989788     0.0000054341608732682     0.0000037999740956870     0.0000014129324623843     -0.0000013291460736526     -0.0000040318563525067     -0.0000063782837064951     -0.0000081575371727783     -0.0000092583198984521     -0.0000096523606182597     -0.0000093856117699516     -0.0000085782652050390     -0.0000074214081914589     -0.0000061561034762179     -0.0000050327408506061     -0.0000042646186487476     -0.0000039923313175281 
    -0.0000022280856159726     -0.0000025788004496887     -0.0000035702200792180     -0.0000050327408506061     -0.0000067228907906295     -0.0000083723080735194     -0.0000097366258305772     -0.0000106299003398748     -0.0000109395659819320     -0.0000106286444420288     -0.0000097350178714790     -0.0000083719088209156     -0.0000067254516842917     -0.0000050395914016804     -0.0000035816687368140     -0.0000025938047483982     -0.0000022444309444984     -0.0000025938057679236     -0.0000035816706504737     -0.0000050395940107809     -0.0000067254547765000     -0.0000083719121941952     -0.0000097350213195881     -0.0000106286477351359     -0.0000109395688779843     -0.0000106299026350189     -0.0000097366274235971     -0.0000083723090027038     -0.0000067228912137284     -0.0000050327409741988     -0.0000035702200792180     -0.0000025788004298325     -0.0000022280856159726 
    -0.0000010247654901655     -0.0000014318474892226     -0.0000025788004298325     -0.0000042646186487476     -0.0000062171111556676     -0.0000081575886894371     -0.0000098498356542332     -0.0000111221623347462     -0.0000118693986639215     -0.0000120503762527955     -0.0000116905640900448     -0.0000108869448637607     -0.0000098038710926103     -0.0000086505051964673     -0.0000076420491123261     -0.0000069588777062685     -0.0000067178166082897     -0.0000069588782235043     -0.0000076420500846093     -0.0000086505065265040     -0.0000098038726782482     -0.0000108869466082488     -0.0000116905658915025     -0.0000120503779920871     -0.0000118694002107880     -0.0000111221635762063     -0.0000098498365307975     -0.0000081575892161595     -0.0000062171114121374     -0.0000042646187414846     -0.0000025788004496887     -0.0000014318474892226     -0.0000010247654901655 
    -0.0000005969157455737     -0.0000010247654901655     -0.0000022280856159726     -0.0000039923313175281     -0.0000060334233148675     -0.0000080692708788691     -0.0000098685450124968     -0.0000112670358091101     -0.0000121634694227283     -0.0000125142785980666     -0.0000123376682211656     -0.0000117216097427302     -0.0000108211022084262     -0.0000098343485408816     -0.0000089625100663919     -0.0000083701559322449     -0.0000081610691495207     -0.0000083701559322449     -0.0000089625100663918     -0.0000098343485408815     -0.0000108211022084262     -0.0000117216097427302     -0.0000123376682211656     -0.0000125142785980666     -0.0000121634694227283     -0.0000112670358091101     -0.0000098685450124968     -0.0000080692708788692     -0.0000060334233148675     -0.0000039923313175281     -0.0000022280856159726     -0.0000010247654901655     -0.0000005969157455737 
    0.0000087018883231274     0.0000079988519728538     0.0000060344360851096     0.0000031865350299800     -0.0000000684278641897     -0.0000032933512261089     -0.0000061697736378500     -0.0000085068274768242     -0.0000102108982099092     -0.0000112560347467615     -0.0000116754401231249     -0.0000115674184338216     -0.0000110938046189854     -0.0000104548160954908     -0.0000098460915645677     -0.0000094200979962845     -0.0000092682064010082     -0.0000094200979962845     -0.0000098460915645677     -0.0000104548160954908     -0.0000110938046189854     -0.0000115674184338216     -0.0000116754401231248     -0.0000112560347467615     -0.0000102108982099092     -0.0000085068274768242     -0.0000061697736378500     -0.0000032933512261089     -0.0000000684278641897     0.0000031865350299800     0.0000060344360851095     0.0000079988519728538     0.0000087018883231274 
    0.0000079988519728538     0.0000073277844265727     0.0000054498852177131     0.0000027209783614593     -0.0000004040117720706     -0.0000034987248275276     -0.0000062435911041456     -0.0000084407899638444     -0.0000099911352586293     -0.0000108685515202575     -0.0000111114046847061     -0.0000108259565196140     -0.0000101830128926227     -0.0000093928939062538     -0.0000086629339887423     -0.0000081577311138412     -0.0000079782129507702     -0.0000081577303961082     -0.0000086629326271078     -0.0000093928920208164     -0.0000101830106187642     -0.0000108259539967154     -0.0000111114020648544     -0.0000108685489771057     -0.0000099911329762019     -0.0000084407881013389     -0.0000062435897519211     -0.0000034987239792621     -0.0000004040113323353     0.0000027209785347359     0.0000054498852589599     0.0000073277844265727     0.0000079988519728538 
    0.0000060344360851096     0.0000054498852589599     0.0000038087419812783     0.0000014125413726074     -0.0000013384167562610     -0.0000040478295617710     -0.0000063979204472545     -0.0000081779400876066     -0.0000092774368993015     -0.0000096693255064814     -0.0000094007538800694     -0.0000085928388060223     -0.0000074370948759350     -0.0000061743714710211     -0.0000050542225391743     -0.0000042887518918669     -0.0000040174902885808     -0.0000042887504756995     -0.0000050542198569577     -0.0000061743677700735     -0.0000074370904391905     -0.0000085928339245911     -0.0000094007488622970     -0.0000096693206898569     -0.0000092774326292367     -0.0000081779366542765     -0.0000063979180064395     -0.0000040478280853535     -0.0000013384160485060     0.0000014125415938022     0.0000038087419812783     0.0000054498852177131     0.0000060344360851096 
    0.0000031865350299800     0.0000027209785347359     0.0000014125415938022     -0.0000004969121878966     -0.0000026720967960102     -0.0000047609583821944     -0.0000064619805641469     -0.0000075617550374694     -0.0000079402269197701     -0.0000075599996970376     -0.0000064598484163611     -0.0000047608392563624     -0.0000026766820929289     -0.0000005082447575312     0.0000013940039190291     0.0000026968791349095     0.0000031603407182415     0.0000026968812436401     0.0000013940078968856     -0.0000005082393121120     -0.0000026766756469285     -0.0000047608322855301     -0.0000064598413975876     -0.0000075599931129866     -0.0000079402212313785     -0.0000075617506083966     -0.0000064619775646100     -0.0000047609567295140     -0.0000026720961810065     -0.0000004969121878966     0.0000014125413726073     0.0000027209783614593     0.0000031865350299800 
    -0.0000000684278641897     -0.0000004040113323353     -0.0000013384160485060     -0.0000026720961810065     -0.0000041252283718317     -0.0000053989718061792     -0.0000062297258003105     -0.0000064172938908833     -0.0000058250247878448     -0.0000043716986830725     -0.0000020406545542255     0.0000010829812901545     0.0000047607114263086     0.0000085713166736482     0.0000119457414286351     0.0000142834426802334     0.0000151209593966399     0.0000142834455248162     0.0000119457467557107     0.0000085713238668513     0.0000047607197620431     0.0000010829900488475     -0.0000020406460387765     -0.0000043716910099422     -0.0000058250184644709     -0.0000064172892695112     -0.0000062297229910940     -0.0000053989706235453     -0.0000041252283718317     -0.0000026720967960102     -0.0000013384167562610     -0.0000004040117720706     -0.0000000684278641897 
    -0.0000032933512261089     -0.0000034987239792621     -0.0000040478280853535     -0.0000047609567295140     -0.0000053989706235453     -0.0000057202171975551     -0.0000055108609309187     -0.0000045791037914630     -0.0000027338992158015     0.0000002156593082766     0.0000044120631565088     0.0000098475615389351     0.0000162363451602411     0.0000229249941484260     0.0000289262533448559     0.0000331294235013086     0.0000346444199419852     0.0000331294271751360     0.0000289262601540665     0.0000229250031674959     0.0000162363553039282     0.0000098475717673948     0.0000044120725963528     0.0000002156672901961     -0.0000027338931547590     -0.0000045790998885022     -0.0000055108591499057     -0.0000057202171975551     -0.0000053989718061792     -0.0000047609583821944     -0.0000040478295617711     -0.0000034987248275276     -0.0000032933512261089 
    -0.0000061697736378500     -0.0000062435897519212     -0.0000063979180064395     -0.0000064619775646100     -0.0000062297229910940     -0.0000055108591499057     -0.0000041224723998215     -0.0000018349567417327     0.0000016696101671205     0.0000067724867970241     0.0000138037436800476     0.0000228465240739053     0.0000335052377533712     0.0000447359716212912     0.0000549565314133662     0.0000629907962908028     0.0000661214908530744     0.0000629908008818677     0.0000549565398176173     0.0000447359824972017     0.0000335052495437720     0.0000228465353529732     0.0000138037533747980     0.0000067724942424702     0.0000016696150541756     -0.0000018349544281501     -0.0000041224723998215     -0.0000055108609309187     -0.0000062297258003105     -0.0000064619805641469     -0.0000063979204472546     -0.0000062435911041456     -0.0000061697736378500 
    -0.0000085068274768241     -0.0000084407881013389     -0.0000081779366542766     -0.0000075617506083966     -0.0000064172892695112     -0.0000045790998885022     -0.0000018349544281501     0.0000021649753610931     0.0000079412954652514     0.0000161016311045030     0.0000271377467076514     0.0000411393490025991     0.0000604724921061980     0.0000866671437422626     0.0001139146235604392     0.0001346167177105893     0.0001423540863840660     0.0001346167232010825     0.0001139146334732955     0.0000866671562399257     0.0000604725050912077     0.0000411393606492096     0.0000271377558007514     0.0000161016370917940     0.0000079412983095119     0.0000021649753610931     -0.0000018349567417327     -0.0000045791037914629     -0.0000064172938908833     -0.0000075617550374694     -0.0000081779400876066     -0.0000084407899638444     -0.0000085068274768241 
    -0.0000102108982099092     -0.0000099911329762019     -0.0000092774326292368     -0.0000079402212313785     -0.0000058250184644709     -0.0000027338931547591     0.0000016696150541756     0.0000079412983095119     0.0000168141764769773     0.0000289987932171374     0.0000458258707434314     0.0000756746033045748     0.0001195104595061682     0.0001717141203227017     0.0002222016230172569     0.0002590607613599876     0.0002725943827000865     0.0002590607675278678     0.0002222016339768994     0.0001717141337277339     0.0001195104727420710     0.0000756746142234709     0.0000458258781115150     0.0000289987967299951     0.0000168141764769773     0.0000079412954652514     0.0000016696101671205     -0.0000027338992158015     -0.0000058250247878448     -0.0000079402269197701     -0.0000092774368993015     -0.0000099911352586293     -0.0000102108982099092 
    -0.0000112560347467615     -0.0000108685489771058     -0.0000096693206898569     -0.0000075599931129867     -0.0000043716910099422     0.0000002156672901961     0.0000067724942424702     0.0000161016370917940     0.0000289987967299951     0.0000476008301433859     0.0000836425129316280     0.0001400586693274112     0.0002134951282313326     0.0002949254995130622     0.0003704345594214421     0.0004242984822165452     0.0004438751128621760     0.0004242984885972318     0.0003704345705266949     0.0002949255125668976     0.0002134951402460818     0.0001400586780207808     0.0000836425172367336     0.0000476008301433858     0.0000289987932171373     0.0000161016311045030     0.0000067724867970241     0.0000002156593082766     -0.0000043716986830725     -0.0000075599996970376     -0.0000096693255064814     -0.0000108685515202575     -0.0000112560347467615 
    -0.0000116754401231249     -0.0000111114020648544     -0.0000094007488622970     -0.0000064598413975876     -0.0000020406460387765     0.0000044120725963528     0.0000138037533747979     0.0000271377558007514     0.0000458258781115151     0.0000836425172367337     0.0001464712878421107     0.0002327955288942564     0.0003364150996591242     0.0004457581772365153     0.0005443379142858440     0.0006136605880108288     0.0006387099514440644     0.0006136605939558749     0.0005443379243220388     0.0004457581883363428     0.0003364151087196787     0.0002327955337708398     0.0001464712878421106     0.0000836425129316279     0.0000458258707434313     0.0000271377467076514     0.0000138037436800476     0.0000044120631565087     -0.0000020406545542256     -0.0000064598484163612     -0.0000094007538800694     -0.0000111114046847061     -0.0000116754401231249 
    -0.0000115674184338216     -0.0000108259539967154     -0.0000085928339245911     -0.0000047608322855300     0.0000010829900488474     0.0000098475717673948     0.0000228465353529733     0.0000411393606492096     0.0000756746142234709     0.0001400586780207808     0.0002327955337708398     0.0003488731619121865     0.0004798976369966591     0.0006132595124997591     0.0007313863544125821     0.0008138844005076240     0.0008436363267436555     0.0008138844053459223     0.0007313863621801616     0.0006132595201833521     0.0004798976417024774     0.0003488731619121865     0.0002327955288942563     0.0001400586693274112     0.0000756746033045748     0.0000411393490025991     0.0000228465240739052     0.0000098475615389351     0.0000010829812901545     -0.0000047608392563624     -0.0000085928388060223     -0.0000108259565196140     -0.0000115674184338216 
    -0.0000110938046189854     -0.0000101830106187642     -0.0000074370904391905     -0.0000026766756469285     0.0000047607197620431     0.0000162363553039282     0.0000335052495437720     0.0000604725050912078     0.0001195104727420711     0.0002134951402460819     0.0003364151087196787     0.0004798976417024775     0.0006345640664933748     0.0007882940449377708     0.0009234071275674826     0.0010177596077668581     0.0010518348084505771     0.0010177596110383037     0.0009234071323361860     0.0007882940485124788     0.0006345640664933749     0.0004798976369966591     0.0003364150996591241     0.0002134951282313326     0.0001195104595061682     0.0000604724921061980     0.0000335052377533712     0.0000162363451602411     0.0000047607114263085     -0.0000026766820929289     -0.0000074370948759350     -0.0000101830128926227     -0.0000110938046189854 
    -0.0000104548160954908     -0.0000093928920208164     -0.0000061743677700736     -0.0000005082393121120     0.0000085713238668513     0.0000229250031674959     0.0000447359824972017     0.0000866671562399258     0.0001717141337277340     0.0002949255125668977     0.0004457581883363428     0.0006132595201833525     0.0007882940485124790     0.0009601691889873259     0.0011112771384434747     0.0012172794143712265     0.0012556911633251899     0.0012172794160403362     0.0011112771403314957     0.0009601691889873260     0.0007882940449377708     0.0006132595124997592     0.0004457581772365153     0.0002949254995130622     0.0001717141203227016     0.0000866671437422626     0.0000447359716212912     0.0000229249941484259     0.0000085713166736482     -0.0000005082447575313     -0.0000061743714710211     -0.0000093928939062538     -0.0000104548160954908 
    -0.0000098460915645677     -0.0000086629326271078     -0.0000050542198569578     0.0000013940078968856     0.0000119457467557106     0.0000289262601540665     0.0000549565398176174     0.0001139146334732956     0.0002222016339768994     0.0003704345705266949     0.0005443379243220387     0.0007313863621801616     0.0009234071323361860     0.0011112771403314957     0.0012771747559783514     0.0013942224170766986     0.0014367836610028782     0.0013942224175756072     0.0012771747559783514     0.0011112771384434747     0.0009234071275674826     0.0007313863544125820     0.0005443379142858440     0.0003704345594214421     0.0002222016230172569     0.0001139146235604392     0.0000549565314133662     0.0000289262533448559     0.0000119457414286351     0.0000013940039190291     -0.0000050542225391743     -0.0000086629339887423     -0.0000098460915645677 
    -0.0000094200979962845     -0.0000081577303961083     -0.0000042887504756995     0.0000026968812436401     0.0000142834455248162     0.0000331294271751359     0.0000629908008818677     0.0001346167232010825     0.0002590607675278678     0.0004242984885972318     0.0006136605939558749     0.0008138844053459226     0.0010177596110383035     0.0012172794160403362     0.0013942224175756076     0.0015195904254803137     0.0015652828026568519     0.0015195904254803141     0.0013942224170766990     0.0012172794143712265     0.0010177596077668581     0.0008138844005076242     0.0006136605880108288     0.0004242984822165452     0.0002590607613599875     0.0001346167177105893     0.0000629907962908028     0.0000331294235013086     0.0000142834426802333     0.0000026968791349095     -0.0000042887518918669     -0.0000081577311138412     -0.0000094200979962845 
    -0.0000092682064010083     -0.0000079782129507702     -0.0000040174902885808     0.0000031603407182415     0.0000151209593966399     0.0000346444199419852     0.0000661214908530744     0.0001423540863840660     0.0002725943827000866     0.0004438751128621760     0.0006387099514440644     0.0008436363267436556     0.0010518348084505769     0.0012556911633251901     0.0014367836610028782     0.0015652828026568517     0.0016121530620089679     0.0015652828026568517     0.0014367836610028782     0.0012556911633251901     0.0010518348084505769     0.0008436363267436556     0.0006387099514440644     0.0004438751128621760     0.0002725943827000865     0.0001423540863840660     0.0000661214908530744     0.0000346444199419852     0.0000151209593966398     0.0000031603407182415     -0.0000040174902885808     -0.0000079782129507702     -0.0000092682064010083 
    -0.0000094200979962845     -0.0000081577311138412     -0.0000042887518918669     0.0000026968791349095     0.0000142834426802333     0.0000331294235013086     0.0000629907962908028     0.0001346167177105893     0.0002590607613599876     0.0004242984822165452     0.0006136605880108288     0.0008138844005076242     0.0010177596077668581     0.0012172794143712265     0.0013942224170766990     0.0015195904254803141     0.0015652828026568519     0.0015195904254803141     0.0013942224175756079     0.0012172794160403362     0.0010177596110383035     0.0008138844053459226     0.0006136605939558749     0.0004242984885972318     0.0002590607675278678     0.0001346167232010824     0.0000629908008818677     0.0000331294271751359     0.0000142834455248162     0.0000026968812436401     -0.0000042887504756995     -0.0000081577303961083     -0.0000094200979962845 
    -0.0000098460915645677     -0.0000086629339887423     -0.0000050542225391742     0.0000013940039190291     0.0000119457414286351     0.0000289262533448559     0.0000549565314133662     0.0001139146235604391     0.0002222016230172569     0.0003704345594214421     0.0005443379142858440     0.0007313863544125820     0.0009234071275674826     0.0011112771384434745     0.0012771747559783514     0.0013942224175756072     0.0014367836610028782     0.0013942224170766986     0.0012771747559783514     0.0011112771403314957     0.0009234071323361860     0.0007313863621801616     0.0005443379243220387     0.0003704345705266949     0.0002222016339768994     0.0001139146334732955     0.0000549565398176173     0.0000289262601540664     0.0000119457467557106     0.0000013940078968856     -0.0000050542198569578     -0.0000086629326271079     -0.0000098460915645677 
    -0.0000104548160954908     -0.0000093928939062538     -0.0000061743714710211     -0.0000005082447575312     0.0000085713166736482     0.0000229249941484260     0.0000447359716212912     0.0000866671437422626     0.0001717141203227017     0.0002949254995130622     0.0004457581772365153     0.0006132595124997591     0.0007882940449377707     0.0009601691889873260     0.0011112771403314957     0.0012172794160403362     0.0012556911633251899     0.0012172794143712265     0.0011112771384434747     0.0009601691889873259     0.0007882940485124790     0.0006132595201833525     0.0004457581883363428     0.0002949255125668977     0.0001717141337277340     0.0000866671562399258     0.0000447359824972017     0.0000229250031674959     0.0000085713238668513     -0.0000005082393121120     -0.0000061743677700736     -0.0000093928920208164     -0.0000104548160954908 
    -0.0000110938046189854     -0.0000101830128926227     -0.0000074370948759349     -0.0000026766820929289     0.0000047607114263086     0.0000162363451602412     0.0000335052377533712     0.0000604724921061980     0.0001195104595061682     0.0002134951282313326     0.0003364150996591241     0.0004798976369966591     0.0006345640664933749     0.0007882940485124788     0.0009234071323361860     0.0010177596110383037     0.0010518348084505771     0.0010177596077668581     0.0009234071275674826     0.0007882940449377708     0.0006345640664933748     0.0004798976417024775     0.0003364151087196787     0.0002134951402460818     0.0001195104727420710     0.0000604725050912078     0.0000335052495437720     0.0000162363553039282     0.0000047607197620431     -0.0000026766756469285     -0.0000074370904391905     -0.0000101830106187641     -0.0000110938046189854 
    -0.0000115674184338216     -0.0000108259565196140     -0.0000085928388060223     -0.0000047608392563624     0.0000010829812901545     0.0000098475615389352     0.0000228465240739053     0.0000411393490025991     0.0000756746033045748     0.0001400586693274112     0.0002327955288942564     0.0003488731619121865     0.0004798976417024774     0.0006132595201833521     0.0007313863621801616     0.0008138844053459225     0.0008436363267436556     0.0008138844005076240     0.0007313863544125821     0.0006132595124997591     0.0004798976369966591     0.0003488731619121865     0.0002327955337708398     0.0001400586780207808     0.0000756746142234709     0.0000411393606492096     0.0000228465353529732     0.0000098475717673948     0.0000010829900488474     -0.0000047608322855300     -0.0000085928339245911     -0.0000108259539967154     -0.0000115674184338216 
    -0.0000116754401231249     -0.0000111114046847062     -0.0000094007538800694     -0.0000064598484163611     -0.0000020406545542256     0.0000044120631565087     0.0000138037436800476     0.0000271377467076514     0.0000458258707434313     0.0000836425129316279     0.0001464712878421106     0.0002327955337708398     0.0003364151087196788     0.0004457581883363428     0.0005443379243220388     0.0006136605939558749     0.0006387099514440644     0.0006136605880108288     0.0005443379142858440     0.0004457581772365153     0.0003364150996591241     0.0002327955288942563     0.0001464712878421106     0.0000836425172367336     0.0000458258781115151     0.0000271377558007514     0.0000138037533747980     0.0000044120725963528     -0.0000020406460387765     -0.0000064598413975876     -0.0000094007488622970     -0.0000111114020648544     -0.0000116754401231249 
    -0.0000112560347467615     -0.0000108685515202575     -0.0000096693255064814     -0.0000075599996970376     -0.0000043716986830725     0.0000002156593082766     0.0000067724867970240     0.0000161016311045030     0.0000289987932171374     0.0000476008301433858     0.0000836425172367336     0.0001400586780207808     0.0002134951402460818     0.0002949255125668977     0.0003704345705266949     0.0004242984885972318     0.0004438751128621761     0.0004242984822165452     0.0003704345594214421     0.0002949254995130623     0.0002134951282313326     0.0001400586693274112     0.0000836425129316279     0.0000476008301433858     0.0000289987967299951     0.0000161016370917940     0.0000067724942424702     0.0000002156672901961     -0.0000043716910099422     -0.0000075599931129866     -0.0000096693206898569     -0.0000108685489771057     -0.0000112560347467615 
    -0.0000102108982099092     -0.0000099911352586293     -0.0000092774368993015     -0.0000079402269197701     -0.0000058250247878448     -0.0000027338992158015     0.0000016696101671205     0.0000079412954652514     0.0000168141764769773     0.0000289987967299951     0.0000458258781115150     0.0000756746142234709     0.0001195104727420710     0.0001717141337277339     0.0002222016339768993     0.0002590607675278678     0.0002725943827000865     0.0002590607613599876     0.0002222016230172569     0.0001717141203227016     0.0001195104595061682     0.0000756746033045748     0.0000458258707434313     0.0000289987932171373     0.0000168141764769773     0.0000079412983095119     0.0000016696150541756     -0.0000027338931547590     -0.0000058250184644709     -0.0000079402212313785     -0.0000092774326292367     -0.0000099911329762019     -0.0000102108982099092 
    -0.0000085068274768242     -0.0000084407899638444     -0.0000081779400876066     -0.0000075617550374695     -0.0000064172938908833     -0.0000045791037914630     -0.0000018349567417327     0.0000021649753610931     0.0000079412983095119     0.0000161016370917940     0.0000271377558007514     0.0000411393606492096     0.0000604725050912077     0.0000866671562399258     0.0001139146334732955     0.0001346167232010825     0.0001423540863840660     0.0001346167177105893     0.0001139146235604391     0.0000866671437422625     0.0000604724921061980     0.0000411393490025991     0.0000271377467076514     0.0000161016311045030     0.0000079412954652514     0.0000021649753610931     -0.0000018349544281501     -0.0000045790998885022     -0.0000064172892695112     -0.0000075617506083966     -0.0000081779366542765     -0.0000084407881013389     -0.0000085068274768242 
    -0.0000061697736378501     -0.0000062435911041456     -0.0000063979204472546     -0.0000064619805641469     -0.0000062297258003105     -0.0000055108609309187     -0.0000041224723998216     -0.0000018349544281501     0.0000016696150541756     0.0000067724942424702     0.0000138037533747980     0.0000228465353529733     0.0000335052495437720     0.0000447359824972017     0.0000549565398176173     0.0000629908008818677     0.0000661214908530744     0.0000629907962908028     0.0000549565314133662     0.0000447359716212912     0.0000335052377533712     0.0000228465240739053     0.0000138037436800476     0.0000067724867970241     0.0000016696101671205     -0.0000018349567417327     -0.0000041224723998215     -0.0000055108591499057     -0.0000062297229910940     -0.0000064619775646100     -0.0000063979180064395     -0.0000062435897519211     -0.0000061697736378501 
    -0.0000032933512261089     -0.0000034987248275277     -0.0000040478295617711     -0.0000047609583821944     -0.0000053989718061792     -0.0000057202171975551     -0.0000055108591499058     -0.0000045790998885022     -0.0000027338931547590     0.0000002156672901961     0.0000044120725963528     0.0000098475717673948     0.0000162363553039282     0.0000229250031674959     0.0000289262601540665     0.0000331294271751360     0.0000346444199419852     0.0000331294235013086     0.0000289262533448559     0.0000229249941484259     0.0000162363451602411     0.0000098475615389351     0.0000044120631565088     0.0000002156593082766     -0.0000027338992158015     -0.0000045791037914630     -0.0000055108609309187     -0.0000057202171975551     -0.0000053989706235453     -0.0000047609567295140     -0.0000040478280853535     -0.0000034987239792621     -0.0000032933512261089 
    -0.0000000684278641897     -0.0000004040117720706     -0.0000013384167562610     -0.0000026720967960102     -0.0000041252283718317     -0.0000053989706235453     -0.0000062297229910940     -0.0000064172892695112     -0.0000058250184644709     -0.0000043716910099422     -0.0000020406460387765     0.0000010829900488474     0.0000047607197620431     0.0000085713238668513     0.0000119457467557106     0.0000142834455248162     0.0000151209593966398     0.0000142834426802333     0.0000119457414286351     0.0000085713166736482     0.0000047607114263085     0.0000010829812901545     -0.0000020406545542255     -0.0000043716986830725     -0.0000058250247878448     -0.0000064172938908833     -0.0000062297258003104     -0.0000053989718061792     -0.0000041252283718317     -0.0000026720961810065     -0.0000013384160485060     -0.0000004040113323353     -0.0000000684278641897 
    0.0000031865350299800     0.0000027209783614593     0.0000014125413726073     -0.0000004969121878966     -0.0000026720961810065     -0.0000047609567295140     -0.0000064619775646100     -0.0000075617506083966     -0.0000079402212313785     -0.0000075599931129866     -0.0000064598413975876     -0.0000047608322855301     -0.0000026766756469285     -0.0000005082393121120     0.0000013940078968856     0.0000026968812436401     0.0000031603407182415     0.0000026968791349096     0.0000013940039190291     -0.0000005082447575312     -0.0000026766820929289     -0.0000047608392563624     -0.0000064598484163611     -0.0000075599996970376     -0.0000079402269197702     -0.0000075617550374695     -0.0000064619805641469     -0.0000047609583821944     -0.0000026720967960102     -0.0000004969121878966     0.0000014125415938022     0.0000027209785347359     0.0000031865350299800 
    0.0000060344360851096     0.0000054498852177131     0.0000038087419812783     0.0000014125415938022     -0.0000013384160485060     -0.0000040478280853535     -0.0000063979180064395     -0.0000081779366542766     -0.0000092774326292368     -0.0000096693206898569     -0.0000094007488622970     -0.0000085928339245911     -0.0000074370904391906     -0.0000061743677700736     -0.0000050542198569578     -0.0000042887504756995     -0.0000040174902885808     -0.0000042887518918669     -0.0000050542225391742     -0.0000061743714710211     -0.0000074370948759350     -0.0000085928388060223     -0.0000094007538800694     -0.0000096693255064814     -0.0000092774368993015     -0.0000081779400876066     -0.0000063979204472545     -0.0000040478295617711     -0.0000013384167562610     0.0000014125413726073     0.0000038087419812783     0.0000054498852589599     0.0000060344360851096 
    0.0000079988519728538     0.0000073277844265727     0.0000054498852589599     0.0000027209785347359     -0.0000004040113323353     -0.0000034987239792621     -0.0000062435897519211     -0.0000084407881013389     -0.0000099911329762019     -0.0000108685489771057     -0.0000111114020648544     -0.0000108259539967154     -0.0000101830106187642     -0.0000093928920208164     -0.0000086629326271078     -0.0000081577303961082     -0.0000079782129507701     -0.0000081577311138412     -0.0000086629339887423     -0.0000093928939062538     -0.0000101830128926227     -0.0000108259565196140     -0.0000111114046847061     -0.0000108685515202575     -0.0000099911352586293     -0.0000084407899638444     -0.0000062435911041456     -0.0000034987248275277     -0.0000004040117720706     0.0000027209783614593     0.0000054498852177131     0.0000073277844265727     0.0000079988519728538 
    0.0000087018883231274     0.0000079988519728538     0.0000060344360851096     0.0000031865350299800     -0.0000000684278641897     -0.0000032933512261089     -0.0000061697736378500     -0.0000085068274768242     -0.0000102108982099092     -0.0000112560347467615     -0.0000116754401231249     -0.0000115674184338216     -0.0000110938046189854     -0.0000104548160954908     -0.0000098460915645677     -0.0000094200979962845     -0.0000092682064010082     -0.0000094200979962845     -0.0000098460915645677     -0.0000104548160954908     -0.0000110938046189854     -0.0000115674184338216     -0.0000116754401231248     -0.0000112560347467615     -0.0000102108982099092     -0.0000085068274768242     -0.0000061697736378500     -0.0000032933512261089     -0.0000000684278641897     0.0000031865350299800     0.0000060344360851095     0.0000079988519728538     0.0000087018883231274 
    0.0000248293292432563     0.0000235792271015995     0.0000201106762001318     0.0000151500289041386     0.0000095864506846720     0.0000041910217922517     -0.0000005348862765101     -0.0000043623381854628     -0.0000072526533381205     -0.0000092671624677291     -0.0000105121683525804     -0.0000111221688027427     -0.0000112595939819999     -0.0000111073637915165     -0.0000108461694592720     -0.0000106253564561681     -0.0000105408640071570     -0.0000106253564561681     -0.0000108461694592720     -0.0000111073637915165     -0.0000112595939819999     -0.0000111221688027427     -0.0000105121683525804     -0.0000092671624677292     -0.0000072526533381205     -0.0000043623381854629     -0.0000005348862765101     0.0000041910217922516     0.0000095864506846720     0.0000151500289041386     0.0000201106762001318     0.0000235792271015995     0.0000248293292432563 
    0.0000235792271015995     0.0000223841493841087     0.0000190646783500397     0.0000143085185097807     0.0000089640572127571     0.0000037761925074203     -0.0000007611944226057     -0.0000044141503387057     -0.0000071355107163571     -0.0000089811093928478     -0.0000100569427802137     -0.0000105015877160174     -0.0000104844555481254     -0.0000101972805170194     -0.0000098303149903851     -0.0000095417361325277     -0.0000094338684870793     -0.0000095417352671774     -0.0000098303133300492     -0.0000101972781843864     -0.0000104844526973605     -0.0000105015845231933     -0.0000100569394441820     -0.0000089811061333566     -0.0000071355077568796     -0.0000044141478720240     -0.0000007611925693625     0.0000037761937291171     0.0000089640578890638     0.0000143085187981772     0.0000190646784245971     0.0000223841493841086     0.0000235792271015995 
    0.0000201106762001318     0.0000190646784245971     0.0000161517287070416     0.0000119601938275741     0.0000072314141992308     0.0000026383955205435     -0.0000013497445474039     -0.0000044910264604161     -0.0000067194093042536     -0.0000080764834418282     -0.0000086642987728652     -0.0000086276474785773     -0.0000081517180861146     -0.0000074535969246000     -0.0000067562682431852     -0.0000062518234643686     -0.0000060687036897927     -0.0000062518217533970     -0.0000067562649663944     -0.0000074535923380114     -0.0000081517125144619     -0.0000086276412903092     -0.0000086642923729830     -0.0000080764772623020     -0.0000067194037706067     -0.0000044910219288599     -0.0000013497412289763     0.0000026383976153321     0.0000072314152610040     0.0000119601941819952     0.0000161517287070416     0.0000190646783500397     0.0000201106762001318 
    0.0000151500289041386     0.0000143085187981772     0.0000119601941819952     0.0000085719180298510     0.0000047481086415743     0.0000010606899908441     -0.0000020679537604016     -0.0000043997369043254     -0.0000058509535217484     -0.0000064400716537125     -0.0000062500109501019     -0.0000054186561635525     -0.0000041467052299798     -0.0000026973747598838     -0.0000013682957200151     -0.0000004376343405980     -0.0000001034896269149     -0.0000004376317941121     -0.0000013682908644914     -0.0000026973680190603     -0.0000041466971437348     -0.0000054186473319304     -0.0000062500019997763     -0.0000064400632106300     -0.0000058509461655650     -0.0000043997310914370     -0.0000020679497295394     0.0000010606922877574     0.0000047481095340058     0.0000085719180298510     0.0000119601938275741     0.0000143085185097807     0.0000151500289041386 
    0.0000095864506846720     0.0000089640578890638     0.0000072314152610041     0.0000047481095340058     0.0000019877936107492     -0.0000005896555198683     -0.0000026313144681818     -0.0000039218048903525     -0.0000043600655254659     -0.0000039192703201503     -0.0000026281487321403     -0.0000005891767071088     0.0000019818242701183     0.0000047328179673292     0.0000072061361758167     0.0000089310599835818     0.0000095505446948283     0.0000089310633965537     0.0000072061426322369     0.0000047328268044292     0.0000019818346501093     -0.0000005891656805115     -0.0000026281379270527     -0.0000039192605213507     -0.0000043600573877562     -0.0000039217988720883     -0.0000026313107435630     -0.0000005896539125095     0.0000019877936107492     0.0000047481086415743     0.0000072314141992308     0.0000089640572127571     0.0000095864506846720 
    0.0000041910217922516     0.0000037761937291171     0.0000026383976153322     0.0000010606922877574     -0.0000005896539125095     -0.0000019620569239273     -0.0000027846711731832     -0.0000028681601639374     -0.0000020719084095219     -0.0000002773287282906     0.0000025937915997570     0.0000065068619520743     0.0000112156033040758     0.0000161961419888596     0.0000206809738861756     0.0000238241613849388     0.0000249569242382884     0.0000238241657354611     0.0000206809820229778     0.0000161961529033857     0.0000112156157466565     0.0000065068746532112     0.0000025938034405746     -0.0000002773186302700     -0.0000020719006751723     -0.0000028681551305165     -0.0000027846688441770     -0.0000019620569239273     -0.0000005896555198683     0.0000010606899908441     0.0000026383955205434     0.0000037761925074203     0.0000041910217922516 
    -0.0000005348862765102     -0.0000007611925693625     -0.0000013497412289763     -0.0000020679497295393     -0.0000026313107435630     -0.0000027846688441770     -0.0000023225908962363     -0.0000010498509529619     0.0000012671684492835     0.0000049011897210831     0.0000100869866828190     0.0000168709850782508     0.0000249299264160379     0.0000334442428939004     0.0000411370013830868     0.0000465503290267242     0.0000485061763034094     0.0000465503343725153     0.0000411370112424784     0.0000334442557937667     0.0000249299405805010     0.0000168709988067172     0.0000100869986303021     0.0000049011990031240     0.0000012671746097868     -0.0000010498480032531     -0.0000023225908962363     -0.0000027846711731832     -0.0000026313144681818     -0.0000020679537604017     -0.0000013497445474039     -0.0000007611944226058     -0.0000005348862765102 
    -0.0000043623381854629     -0.0000044141478720240     -0.0000044910219288598     -0.0000043997310914369     -0.0000039217988720883     -0.0000028681551305164     -0.0000010498480032531     0.0000018008956736127     0.0000060756564656840     0.0000122401183546577     0.0000206799273669164     0.0000314692662286595     0.0000441716984372612     0.0000603734941229422     0.0000780893941214526     0.0000919220385696943     0.0000971552782993832     0.0000919220448613411     0.0000780894055419594     0.0000603735086433979     0.0000441717136892100     0.0000314692800834093     0.0000206799383350206     0.0000122401256812957     0.0000060756599965686     0.0000018008956736127     -0.0000010498509529619     -0.0000028681601639374     -0.0000039218048903525     -0.0000043997369043254     -0.0000044910264604161     -0.0000044141503387057     -0.0000043623381854629 
    -0.0000072526533381205     -0.0000071355077568796     -0.0000067194037706067     -0.0000058509461655650     -0.0000043600573877562     -0.0000020719006751723     0.0000012671746097869     0.0000060756599965687     0.0000129315194459776     0.0000224313361592266     0.0000349549022909244     0.0000534765861836149     0.0000827676796293106     0.0001193230627240026     0.0001556909743510954     0.0001826738356759583     0.0001926540595948235     0.0001826738426682507     0.0001556909868099714     0.0001193230780395641     0.0000827676948691890     0.0000534765988919035     0.0000349549109853240     0.0000224313403719537     0.0000129315194459776     0.0000060756564656839     0.0000012671684492834     -0.0000020719084095220     -0.0000043600655254660     -0.0000058509535217484     -0.0000067194093042536     -0.0000071355107163571     -0.0000072526533381205 
    -0.0000092671624677292     -0.0000089811061333565     -0.0000080764772623020     -0.0000064400632106300     -0.0000039192605213507     -0.0000002773186302700     0.0000049011990031240     0.0000122401256812958     0.0000224313403719538     0.0000359415475555796     0.0000588933454371481     0.0000980441410604091     0.0001517110227358796     0.0002131842839727412     0.0002713317700148761     0.0003132796264654597     0.0003286022994377889     0.0003132796336816260     0.0002713317825712450     0.0002131842987452692     0.0001517110363793003     0.0000980441510043837     0.0000588933504202246     0.0000359415475555796     0.0000224313361592265     0.0000122401183546577     0.0000049011897210831     -0.0000002773287282907     -0.0000039192703201504     -0.0000064400716537125     -0.0000080764834418282     -0.0000089811093928478     -0.0000092671624677292 
    -0.0000105121683525805     -0.0000100569394441820     -0.0000086642923729830     -0.0000062500019997763     -0.0000026281379270527     0.0000025938034405746     0.0000100869986303021     0.0000206799383350206     0.0000349549109853240     0.0000588933504202247     0.0001030572711618149     0.0001676861312521156     0.0002484958693355024     0.0003359843498559139     0.0004160458765902448     0.0004727865319797048     0.0004933560155536359     0.0004727865387507315     0.0004160458879823431     0.0003359843624090204     0.0002484958795648304     0.0001676861367713930     0.0001030572711618149     0.0000588933454371481     0.0000349549022909243     0.0000206799273669163     0.0000100869866828190     0.0000025937915997570     -0.0000026281487321403     -0.0000062500109501019     -0.0000086642987728652     -0.0000100569427802137     -0.0000105121683525805 
    -0.0000111221688027427     -0.0000105015845231933     -0.0000086276412903092     -0.0000054186473319304     -0.0000005891656805115     0.0000065068746532112     0.0000168709988067173     0.0000314692800834093     0.0000534765988919036     0.0000980441510043839     0.0001676861367713931     0.0002597151367703271     0.0003674140410023511     0.0004793934320348684     0.0005796293086914944     0.0006499270290219563     0.0006753109311934143     0.0006499270346161438     0.0005796293176167560     0.0004793934407923593     0.0003674140463278756     0.0002597151367703270     0.0001676861312521156     0.0000980441410604091     0.0000534765861836149     0.0000314692662286595     0.0000168709850782508     0.0000065068619520742     -0.0000005891767071088     -0.0000054186561635524     -0.0000086276474785773     -0.0000105015877160174     -0.0000111221688027427 
    -0.0000112595939819999     -0.0000104844526973605     -0.0000081517125144619     -0.0000041466971437348     0.0000019818346501093     0.0000112156157466565     0.0000249299405805011     0.0000441717136892100     0.0000827676948691890     0.0001517110363793004     0.0002484958795648305     0.0003674140463278757     0.0004999955548907745     0.0006340624844344229     0.0007525457293053262     0.0008352842523500925     0.0008651339557451574     0.0008352842562074408     0.0007525457348807931     0.0006340624885649357     0.0004999955548907745     0.0003674140410023510     0.0002484958693355023     0.0001517110227358797     0.0000827676796293106     0.0000441716984372611     0.0000249299264160379     0.0000112156033040757     0.0000019818242701182     -0.0000041467052299798     -0.0000081517180861146     -0.0000104844555481254     -0.0000112595939819999 
    -0.0000111073637915165     -0.0000101972781843864     -0.0000074535923380113     -0.0000026973680190603     0.0000047328268044292     0.0000161961529033857     0.0000334442557937667     0.0000603735086433979     0.0001193230780395641     0.0002131842987452692     0.0003359843624090204     0.0004793934407923594     0.0006340624885649357     0.0007878709827584681     0.0009231040144931803     0.0010175625666670313     0.0010516798217067502     0.0010175625686745830     0.0009231040167417952     0.0007878709827584681     0.0006340624844344229     0.0004793934320348684     0.0003359843498559139     0.0002131842839727412     0.0001193230627240025     0.0000603734941229421     0.0000334442428939004     0.0000161961419888595     0.0000047328179673291     -0.0000026973747598838     -0.0000074535969246000     -0.0000101972805170194     -0.0000111073637915165 
    -0.0000108461694592720     -0.0000098303133300492     -0.0000067562649663945     -0.0000013682908644914     0.0000072061426322369     0.0000206809820229778     0.0000411370112424785     0.0000780894055419594     0.0001556909868099714     0.0002713317825712451     0.0004160458879823430     0.0005796293176167560     0.0007525457348807931     0.0009231040167417952     0.0010730039271835629     0.0011779516886086929     0.0012159267108545384     0.0011779516892187832     0.0010730039271835629     0.0009231040144931803     0.0007525457293053260     0.0005796293086914943     0.0004160458765902448     0.0002713317700148760     0.0001556909743510953     0.0000780893941214526     0.0000411370013830868     0.0000206809738861755     0.0000072061361758166     -0.0000013682957200151     -0.0000067562682431853     -0.0000098303149903851     -0.0000108461694592720 
    -0.0000106253564561681     -0.0000095417352671774     -0.0000062518217533970     -0.0000004376317941121     0.0000089310633965537     0.0000238241657354611     0.0000465503343725154     0.0000919220448613411     0.0001826738426682507     0.0003132796336816261     0.0004727865387507315     0.0006499270346161437     0.0008352842562074408     0.0010175625686745830     0.0011779516892187830     0.0012904910229901852     0.0013312709215197518     0.0012904910229901852     0.0011779516886086931     0.0010175625666670313     0.0008352842523500924     0.0006499270290219565     0.0004727865319797047     0.0003132796264654597     0.0001826738356759582     0.0000919220385696943     0.0000465503290267242     0.0000238241613849388     0.0000089310599835817     -0.0000004376343405980     -0.0000062518234643686     -0.0000095417361325278     -0.0000106253564561681 
    -0.0000105408640071569     -0.0000094338684870793     -0.0000060687036897927     -0.0000001034896269149     0.0000095505446948283     0.0000249569242382884     0.0000485061763034095     0.0000971552782993832     0.0001926540595948235     0.0003286022994377889     0.0004933560155536361     0.0006753109311934144     0.0008651339557451574     0.0010516798217067502     0.0012159267108545384     0.0013312709215197514     0.0013730886589679815     0.0013312709215197514     0.0012159267108545384     0.0010516798217067502     0.0008651339557451574     0.0006753109311934144     0.0004933560155536361     0.0003286022994377889     0.0001926540595948234     0.0000971552782993831     0.0000485061763034094     0.0000249569242382884     0.0000095505446948282     -0.0000001034896269149     -0.0000060687036897927     -0.0000094338684870793     -0.0000105408640071569 
    -0.0000106253564561681     -0.0000095417361325278     -0.0000062518234643686     -0.0000004376343405980     0.0000089310599835817     0.0000238241613849388     0.0000465503290267242     0.0000919220385696943     0.0001826738356759583     0.0003132796264654597     0.0004727865319797047     0.0006499270290219565     0.0008352842523500924     0.0010175625666670313     0.0011779516886086931     0.0012904910229901852     0.0013312709215197518     0.0012904910229901852     0.0011779516892187830     0.0010175625686745828     0.0008352842562074408     0.0006499270346161437     0.0004727865387507314     0.0003132796336816260     0.0001826738426682507     0.0000919220448613410     0.0000465503343725153     0.0000238241657354611     0.0000089310633965537     -0.0000004376317941121     -0.0000062518217533971     -0.0000095417352671774     -0.0000106253564561681 
    -0.0000108461694592720     -0.0000098303149903851     -0.0000067562682431853     -0.0000013682957200151     0.0000072061361758167     0.0000206809738861755     0.0000411370013830868     0.0000780893941214526     0.0001556909743510953     0.0002713317700148761     0.0004160458765902448     0.0005796293086914943     0.0007525457293053260     0.0009231040144931801     0.0010730039271835629     0.0011779516892187832     0.0012159267108545384     0.0011779516886086929     0.0010730039271835629     0.0009231040167417952     0.0007525457348807931     0.0005796293176167559     0.0004160458879823430     0.0002713317825712451     0.0001556909868099713     0.0000780894055419593     0.0000411370112424784     0.0000206809820229778     0.0000072061426322369     -0.0000013682908644914     -0.0000067562649663945     -0.0000098303133300492     -0.0000108461694592720 
    -0.0000111073637915164     -0.0000101972805170194     -0.0000074535969246000     -0.0000026973747598838     0.0000047328179673292     0.0000161961419888596     0.0000334442428939004     0.0000603734941229422     0.0001193230627240026     0.0002131842839727412     0.0003359843498559139     0.0004793934320348684     0.0006340624844344229     0.0007878709827584681     0.0009231040167417952     0.0010175625686745830     0.0010516798217067502     0.0010175625666670313     0.0009231040144931803     0.0007878709827584681     0.0006340624885649357     0.0004793934407923593     0.0003359843624090204     0.0002131842987452692     0.0001193230780395641     0.0000603735086433978     0.0000334442557937667     0.0000161961529033857     0.0000047328268044292     -0.0000026973680190603     -0.0000074535923380114     -0.0000101972781843864     -0.0000111073637915164 
    -0.0000112595939819999     -0.0000104844555481254     -0.0000081517180861146     -0.0000041467052299798     0.0000019818242701183     0.0000112156033040758     0.0000249299264160379     0.0000441716984372611     0.0000827676796293106     0.0001517110227358797     0.0002484958693355024     0.0003674140410023510     0.0004999955548907745     0.0006340624885649357     0.0007525457348807931     0.0008352842562074408     0.0008651339557451574     0.0008352842523500925     0.0007525457293053262     0.0006340624844344229     0.0004999955548907745     0.0003674140463278756     0.0002484958795648305     0.0001517110363793003     0.0000827676948691889     0.0000441717136892100     0.0000249299405805011     0.0000112156157466565     0.0000019818346501093     -0.0000041466971437348     -0.0000081517125144619     -0.0000104844526973604     -0.0000112595939819999 
    -0.0000111221688027427     -0.0000105015877160174     -0.0000086276474785773     -0.0000054186561635524     -0.0000005891767071088     0.0000065068619520743     0.0000168709850782508     0.0000314692662286595     0.0000534765861836149     0.0000980441410604091     0.0001676861312521156     0.0002597151367703271     0.0003674140463278757     0.0004793934407923593     0.0005796293176167560     0.0006499270346161438     0.0006753109311934144     0.0006499270290219563     0.0005796293086914944     0.0004793934320348684     0.0003674140410023510     0.0002597151367703270     0.0001676861367713931     0.0000980441510043838     0.0000534765988919035     0.0000314692800834093     0.0000168709988067172     0.0000065068746532112     -0.0000005891656805116     -0.0000054186473319304     -0.0000086276412903092     -0.0000105015845231933     -0.0000111221688027427 
    -0.0000105121683525804     -0.0000100569427802137     -0.0000086642987728652     -0.0000062500109501019     -0.0000026281487321403     0.0000025937915997570     0.0000100869866828190     0.0000206799273669163     0.0000349549022909244     0.0000588933454371482     0.0001030572711618150     0.0001676861367713932     0.0002484958795648305     0.0003359843624090204     0.0004160458879823431     0.0004727865387507315     0.0004933560155536359     0.0004727865319797048     0.0004160458765902448     0.0003359843498559139     0.0002484958693355023     0.0001676861312521156     0.0001030572711618149     0.0000588933504202246     0.0000349549109853239     0.0000206799383350206     0.0000100869986303021     0.0000025938034405746     -0.0000026281379270527     -0.0000062500019997763     -0.0000086642923729830     -0.0000100569394441820     -0.0000105121683525804 
    -0.0000092671624677292     -0.0000089811093928478     -0.0000080764834418282     -0.0000064400716537125     -0.0000039192703201503     -0.0000002773287282906     0.0000049011897210831     0.0000122401183546577     0.0000224313361592266     0.0000359415475555796     0.0000588933504202247     0.0000980441510043838     0.0001517110363793003     0.0002131842987452692     0.0002713317825712451     0.0003132796336816260     0.0003286022994377889     0.0003132796264654597     0.0002713317700148761     0.0002131842839727412     0.0001517110227358796     0.0000980441410604090     0.0000588933454371481     0.0000359415475555796     0.0000224313403719537     0.0000122401256812957     0.0000049011990031240     -0.0000002773186302701     -0.0000039192605213507     -0.0000064400632106300     -0.0000080764772623021     -0.0000089811061333566     -0.0000092671624677292 
    -0.0000072526533381205     -0.0000071355107163571     -0.0000067194093042536     -0.0000058509535217484     -0.0000043600655254660     -0.0000020719084095219     0.0000012671684492835     0.0000060756564656839     0.0000129315194459776     0.0000224313403719538     0.0000349549109853240     0.0000534765988919036     0.0000827676948691890     0.0001193230780395641     0.0001556909868099714     0.0001826738426682507     0.0001926540595948235     0.0001826738356759583     0.0001556909743510953     0.0001193230627240025     0.0000827676796293106     0.0000534765861836148     0.0000349549022909243     0.0000224313361592266     0.0000129315194459776     0.0000060756599965686     0.0000012671746097868     -0.0000020719006751723     -0.0000043600573877562     -0.0000058509461655650     -0.0000067194037706067     -0.0000071355077568796     -0.0000072526533381205 
    -0.0000043623381854628     -0.0000044141503387057     -0.0000044910264604161     -0.0000043997369043254     -0.0000039218048903525     -0.0000028681601639374     -0.0000010498509529619     0.0000018008956736127     0.0000060756599965686     0.0000122401256812957     0.0000206799383350206     0.0000314692800834093     0.0000441717136892100     0.0000603735086433979     0.0000780894055419594     0.0000919220448613411     0.0000971552782993832     0.0000919220385696943     0.0000780893941214526     0.0000603734941229421     0.0000441716984372611     0.0000314692662286595     0.0000206799273669163     0.0000122401183546577     0.0000060756564656839     0.0000018008956736127     -0.0000010498480032531     -0.0000028681551305165     -0.0000039217988720883     -0.0000043997310914369     -0.0000044910219288599     -0.0000044141478720240     -0.0000043623381854628 
    -0.0000005348862765102     -0.0000007611944226057     -0.0000013497445474039     -0.0000020679537604017     -0.0000026313144681818     -0.0000027846711731832     -0.0000023225908962363     -0.0000010498480032531     0.0000012671746097868     0.0000049011990031240     0.0000100869986303021     0.0000168709988067172     0.0000249299405805011     0.0000334442557937667     0.0000411370112424785     0.0000465503343725153     0.0000485061763034094     0.0000465503290267242     0.0000411370013830868     0.0000334442428939004     0.0000249299264160379     0.0000168709850782508     0.0000100869866828190     0.0000049011897210831     0.0000012671684492834     -0.0000010498509529619     -0.0000023225908962363     -0.0000027846688441770     -0.0000026313107435630     -0.0000020679497295393     -0.0000013497412289763     -0.0000007611925693625     -0.0000005348862765102 
    0.0000041910217922516     0.0000037761925074203     0.0000026383955205435     0.0000010606899908441     -0.0000005896555198683     -0.0000019620569239273     -0.0000027846688441770     -0.0000028681551305164     -0.0000020719006751723     -0.0000002773186302700     0.0000025938034405746     0.0000065068746532112     0.0000112156157466565     0.0000161961529033857     0.0000206809820229778     0.0000238241657354611     0.0000249569242382884     0.0000238241613849388     0.0000206809738861755     0.0000161961419888596     0.0000112156033040757     0.0000065068619520743     0.0000025937915997570     -0.0000002773287282906     -0.0000020719084095220     -0.0000028681601639374     -0.0000027846711731832     -0.0000019620569239273     -0.0000005896539125096     0.0000010606922877574     0.0000026383976153322     0.0000037761937291171     0.0000041910217922516 
    0.0000095864506846720     0.0000089640572127571     0.0000072314141992308     0.0000047481086415743     0.0000019877936107492     -0.0000005896539125095     -0.0000026313107435630     -0.0000039217988720883     -0.0000043600573877562     -0.0000039192605213507     -0.0000026281379270527     -0.0000005891656805115     0.0000019818346501094     0.0000047328268044292     0.0000072061426322369     0.0000089310633965537     0.0000095505446948283     0.0000089310599835818     0.0000072061361758167     0.0000047328179673292     0.0000019818242701183     -0.0000005891767071088     -0.0000026281487321403     -0.0000039192703201503     -0.0000043600655254660     -0.0000039218048903525     -0.0000026313144681818     -0.0000005896555198683     0.0000019877936107492     0.0000047481095340058     0.0000072314152610040     0.0000089640578890638     0.0000095864506846720 
    0.0000151500289041386     0.0000143085185097806     0.0000119601938275741     0.0000085719180298510     0.0000047481095340057     0.0000010606922877574     -0.0000020679497295393     -0.0000043997310914370     -0.0000058509461655650     -0.0000064400632106300     -0.0000062500019997763     -0.0000054186473319304     -0.0000041466971437348     -0.0000026973680190603     -0.0000013682908644913     -0.0000004376317941121     -0.0000001034896269149     -0.0000004376343405979     -0.0000013682957200151     -0.0000026973747598838     -0.0000041467052299798     -0.0000054186561635524     -0.0000062500109501019     -0.0000064400716537125     -0.0000058509535217484     -0.0000043997369043254     -0.0000020679537604017     0.0000010606899908441     0.0000047481086415743     0.0000085719180298510     0.0000119601941819952     0.0000143085187981772     0.0000151500289041386 
    0.0000201106762001318     0.0000190646783500397     0.0000161517287070416     0.0000119601941819952     0.0000072314152610040     0.0000026383976153322     -0.0000013497412289763     -0.0000044910219288598     -0.0000067194037706067     -0.0000080764772623020     -0.0000086642923729830     -0.0000086276412903092     -0.0000081517125144618     -0.0000074535923380113     -0.0000067562649663944     -0.0000062518217533970     -0.0000060687036897927     -0.0000062518234643686     -0.0000067562682431852     -0.0000074535969246000     -0.0000081517180861146     -0.0000086276474785773     -0.0000086642987728652     -0.0000080764834418282     -0.0000067194093042536     -0.0000044910264604161     -0.0000013497445474039     0.0000026383955205434     0.0000072314141992308     0.0000119601938275741     0.0000161517287070416     0.0000190646784245971     0.0000201106762001318 
    0.0000235792271015995     0.0000223841493841086     0.0000190646784245971     0.0000143085187981772     0.0000089640578890638     0.0000037761937291171     -0.0000007611925693625     -0.0000044141478720240     -0.0000071355077568796     -0.0000089811061333565     -0.0000100569394441820     -0.0000105015845231932     -0.0000104844526973604     -0.0000101972781843863     -0.0000098303133300491     -0.0000095417352671774     -0.0000094338684870793     -0.0000095417361325277     -0.0000098303149903851     -0.0000101972805170194     -0.0000104844555481254     -0.0000105015877160174     -0.0000100569427802137     -0.0000089811093928478     -0.0000071355107163571     -0.0000044141503387057     -0.0000007611944226057     0.0000037761925074203     0.0000089640572127571     0.0000143085185097807     0.0000190646783500397     0.0000223841493841086     0.0000235792271015995 
    0.0000248293292432563     0.0000235792271015995     0.0000201106762001318     0.0000151500289041386     0.0000095864506846720     0.0000041910217922517     -0.0000005348862765101     -0.0000043623381854628     -0.0000072526533381205     -0.0000092671624677291     -0.0000105121683525804     -0.0000111221688027427     -0.0000112595939819999     -0.0000111073637915165     -0.0000108461694592720     -0.0000106253564561681     -0.0000105408640071570     -0.0000106253564561681     -0.0000108461694592720     -0.0000111073637915165     -0.0000112595939819999     -0.0000111221688027427     -0.0000105121683525804     -0.0000092671624677292     -0.0000072526533381205     -0.0000043623381854629     -0.0000005348862765101     0.0000041910217922516     0.0000095864506846720     0.0000151500289041386     0.0000201106762001318     0.0000235792271015995     0.0000248293292432563 
    0.0000518615494909899     0.0000496228354024272     0.0000434397635108812     0.0000346795044478172     0.0000249956278883773     0.0000157861247965220     0.0000079042896311827     0.0000016578752834072     -0.0000030223322543746     -0.0000063837305058405     -0.0000087055073756217     -0.0000102267699331168     -0.0000111360169604542     -0.0000115944468021620     -0.0000117595855798419     -0.0000117821431604926     -0.0000117755281541642     -0.0000117821431604926     -0.0000117595855798419     -0.0000115944468021620     -0.0000111360169604542     -0.0000102267699331168     -0.0000087055073756217     -0.0000063837305058405     -0.0000030223322543746     0.0000016578752834072     0.0000079042896311826     0.0000157861247965220     0.0000249956278883773     0.0000346795044478172     0.0000434397635108812     0.0000496228354024272     0.0000518615494909899 
    0.0000496228354024272     0.0000474800402402759     0.0000415578704688332     0.0000331571571645965     0.0000238575120852841     0.0000150030216200454     0.0000074230683190985     0.0000014256817220934     -0.0000030458659350973     -0.0000062247410805862     -0.0000083800801086069     -0.0000097470471851511     -0.0000105160239633427     -0.0000108542602700637     -0.0000109268281217471     -0.0000108909970423197     -0.0000108644303177937     -0.0000108909960798034     -0.0000109268262526396     -0.0000108542576040954     -0.0000105160206603187     -0.0000097470434488506     -0.0000083800761760493     -0.0000062247372051280     -0.0000030458623638849     0.0000014256847751039     0.0000074230707031193     0.0000150030232758485     0.0000238575130617382     0.0000331571576103299     0.0000415578705915512     0.0000474800402402758     0.0000496228354024272 
    0.0000434397635108812     0.0000415578705915511     0.0000363477312451750     0.0000289346151309075     0.0000207001638793925     0.0000128411882591288     0.0000061182551759824     0.0000008352142710568     -0.0000030347504410187     -0.0000056876282338041     -0.0000073638360879661     -0.0000082848493458262     -0.0000086439082078111     -0.0000086251239488314     -0.0000084177801603893     -0.0000082027333137507     -0.0000081144070595389     -0.0000082027314048619     -0.0000084177764610114     -0.0000086251186927001     -0.0000086439017352692     -0.0000082848420854422     -0.0000073638285265290     -0.0000056876208770169     -0.0000030347437683762     0.0000008352198570960     0.0000061182594069471     0.0000128411910548728     0.0000207001653771161     0.0000289346156615466     0.0000363477312451750     0.0000415578704688332     0.0000434397635108812 
    0.0000346795044478172     0.0000331571576103299     0.0000289346156615466     0.0000229085919416123     0.0000161970986427131     0.0000097924179371396     0.0000043495424635510     0.0000001530356184843     -0.0000027919817777966     -0.0000046307616606734     -0.0000055564190237758     -0.0000057614304067478     -0.0000054382112754036     -0.0000048004191427845     -0.0000040888461451811     -0.0000035414067215220     -0.0000033367306004170     -0.0000035414038809807     -0.0000040888406657813     -0.0000048004114219623     -0.0000054382018841858     -0.0000057614200426759     -0.0000055564084439983     -0.0000046307516112402     -0.0000027919729290413     0.0000001530427367170     0.0000043495475361776     0.0000097924209365061     0.0000161970998612790     0.0000229085919416123     0.0000289346151309075     0.0000331571571645965     0.0000346795044478172 
    0.0000249956278883773     0.0000238575130617382     0.0000207001653771161     0.0000161970998612790     0.0000111995775571684     0.0000064789037415151     0.0000025602848253954     -0.0000003108496249578     -0.0000021020213036366     -0.0000028938931887503     -0.0000028071945619770     -0.0000019839802615921     -0.0000006140673948662     0.0000010313056612709     0.0000026031326244110     0.0000037362081875909     0.0000041492334312025     0.0000037362119645259     0.0000026031398505214     0.0000010313157001865     -0.0000006140554297078     -0.0000019839674003649     -0.0000028071818492603     -0.0000028938815737800     -0.0000021020115672594     -0.0000003108423212420     0.0000025602894414445     0.0000064789057900733     0.0000111995775571683     0.0000161970986427131     0.0000207001638793925     0.0000238575120852840     0.0000249956278883773 
    0.0000157861247965220     0.0000150030232758485     0.0000128411910548728     0.0000097924209365061     0.0000064789057900733     0.0000034650900043197     0.0000011398389209788     -0.0000002981467040786     -0.0000007801969342301     -0.0000002946503396163     0.0000011445526620994     0.0000034670161181602     0.0000064734524118574     0.0000097760208325450     0.0000128129328620949     0.0000149655544492504     0.0000157451795827595     0.0000149655591829189     0.0000128129418113648     0.0000097760330154253     0.0000064734665174794     0.0000034670307176251     0.0000011445664277520     -0.0000002946384864154     -0.0000007801877652009     -0.0000002981406629057     0.0000011398417620208     0.0000034650900043197     0.0000064789037415151     0.0000097924179371397     0.0000128411882591288     0.0000150030216200454     0.0000157861247965220 
    0.0000079042896311827     0.0000074230707031193     0.0000061182594069471     0.0000043495475361776     0.0000025602894414445     0.0000011398417620208     0.0000003583520098746     0.0000003889102873261     0.0000013710970761552     0.0000034512792698797     0.0000067565172103349     0.0000112958444123893     0.0000168240501550661     0.0000227425918777410     0.0000281267034346940     0.0000319275390099419     0.0000333024234585158     0.0000319275446953800     0.0000281267140234489     0.0000227426059274520     0.0000168240658289086     0.0000112958598446590     0.0000067565308362773     0.0000034512899952816     0.0000013711042833937     0.0000003889137824992     0.0000003583520098746     0.0000011398389209787     0.0000025602848253953     0.0000043495424635510     0.0000061182551759824     0.0000074230683190984     0.0000079042896311827 
    0.0000016578752834072     0.0000014256847751039     0.0000008352198570960     0.0000001530427367170     -0.0000003108423212419     -0.0000002981406629057     0.0000003889137824992     0.0000019500179234614     0.0000046468631444144     0.0000087956353718180     0.0000146693783794481     0.0000223247531768394     0.0000314016988119613     0.0000409849561847760     0.0000503710601349909     0.0000580496000351248     0.0000610181590384824     0.0000580496065721910     0.0000503710720979685     0.0000409849715831542     0.0000314017152315808     0.0000223247683410739     0.0000146693905900579     0.0000087956436663718     0.0000046468672067674     0.0000019500179234614     0.0000003889102873261     -0.0000002981467040786     -0.0000003108496249578     0.0000001530356184843     0.0000008352142710568     0.0000014256817220934     0.0000016578752834072 
    -0.0000030223322543746     -0.0000030458623638849     -0.0000030347437683762     -0.0000027919729290413     -0.0000021020115672594     -0.0000007801877652009     0.0000013711042833937     0.0000046468672067675     0.0000094686617406320     0.0000163044593835462     0.0000254927907230250     0.0000370232003267797     0.0000533741913930322     0.0000754113889178389     0.0000983687290213712     0.0001158520213372845     0.0001223954672549092     0.0001158520284676665     0.0000983687418009459     0.0000754114047775575     0.0000533742073779422     0.0000370232138676821     0.0000254928001560838     0.0000163044640446744     0.0000094686617406319     0.0000046468631444144     0.0000013710970761552     -0.0000007801969342302     -0.0000021020213036367     -0.0000027919817777967     -0.0000030347504410187     -0.0000030458659350973     -0.0000030223322543746 
    -0.0000063837305058405     -0.0000062247372051280     -0.0000056876208770169     -0.0000046307516112401     -0.0000028938815737799     -0.0000002946384864154     0.0000034512899952816     0.0000087956436663719     0.0000163044640446744     0.0000264658766493806     0.0000399436136666596     0.0000632314723028873     0.0000978731898499366     0.0001396138976956732     0.0001803344697584730     0.0002102300974549139     0.0002212369479301703     0.0002102301047377458     0.0001803344824689849     0.0001396139127349029     0.0000978732038669688     0.0000632314826542649     0.0000399436189442337     0.0000264658766493805     0.0000163044593835461     0.0000087956353718179     0.0000034512792698796     -0.0000002946503396163     -0.0000028938931887504     -0.0000046307616606735     -0.0000056876282338041     -0.0000062247410805862     -0.0000063837305058405 
    -0.0000087055073756217     -0.0000083800761760493     -0.0000073638285265289     -0.0000055564084439982     -0.0000028071818492602     0.0000011445664277521     0.0000067565308362773     0.0000146693905900579     0.0000254928001560838     0.0000399436189442338     0.0000667078208528409     0.0001099369657970446     0.0001674379561145710     0.0002321621293434592     0.0002927856959250004     0.0003362982061094946     0.0003521589632736356     0.0003362982129399437     0.0002927857074153578     0.0002321621420200246     0.0001674379664885199     0.0001099369714443921     0.0000667078208528409     0.0000399436136666595     0.0000254927907230249     0.0000146693783794480     0.0000067565172103349     0.0000011445526620994     -0.0000028071945619770     -0.0000055564190237759     -0.0000073638360879661     -0.0000083800801086070     -0.0000087055073756217 
    -0.0000102267699331168     -0.0000097470434488506     -0.0000082848420854422     -0.0000057614200426759     -0.0000019839674003649     0.0000034670307176251     0.0000112958598446591     0.0000223247683410739     0.0000370232138676821     0.0000632314826542649     0.0001099369714443922     0.0001768464858411025     0.0002594147692700196     0.0003481181547097021     0.0004289634831949729     0.0004861562454511446     0.0005068766237717524     0.0004861562511411727     0.0004289634922447528     0.0003481181635597088     0.0002594147746455212     0.0001768464858411025     0.0001099369657970445     0.0000632314723028873     0.0000370232003267797     0.0000223247531768394     0.0000112958444123892     0.0000034670161181602     -0.0000019839802615921     -0.0000057614304067478     -0.0000082848493458262     -0.0000097470471851511     -0.0000102267699331168 
    -0.0000111360169604542     -0.0000105160206603187     -0.0000086439017352693     -0.0000054382018841857     -0.0000006140554297078     0.0000064734665174794     0.0000168240658289086     0.0000314017152315809     0.0000533742073779423     0.0000978732038669689     0.0001674379664885200     0.0002594147746455213     0.0003671111421344320     0.0004791408293624740     0.0005794576282128150     0.0006498283663821964     0.0006752414619287777     0.0006498283703590611     0.0005794576339295720     0.0004791408335671653     0.0003671111421344319     0.0002594147692700195     0.0001674379561145709     0.0000978731898499365     0.0000533741913930322     0.0000314016988119613     0.0000168240501550661     0.0000064734524118574     -0.0000006140673948663     -0.0000054382112754037     -0.0000086439082078112     -0.0000105160239633428     -0.0000111360169604542 
    -0.0000115944468021620     -0.0000108542576040954     -0.0000086251186927001     -0.0000048004114219622     0.0000010313157001865     0.0000097760330154253     0.0000227426059274520     0.0000409849715831542     0.0000754114047775575     0.0001396139127349030     0.0002321621420200245     0.0003481181635597087     0.0004791408335671653     0.0006126243973952747     0.0007309426525193963     0.0008136119138113966     0.0008434320474056143     0.0008136119159118332     0.0007309426548555596     0.0006126243973952747     0.0004791408293624738     0.0003481181547097021     0.0002321621293434591     0.0001396138976956732     0.0000754113889178388     0.0000409849561847760     0.0000227425918777410     0.0000097760208325450     0.0000010313056612709     -0.0000048004191427845     -0.0000086251239488315     -0.0000108542602700637     -0.0000115944468021620 
    -0.0000117595855798419     -0.0000109268262526395     -0.0000084177764610114     -0.0000040888406657813     0.0000026031398505214     0.0000128129418113649     0.0000281267140234489     0.0000503710720979686     0.0000983687418009460     0.0001803344824689850     0.0002927857074153579     0.0004289634922447528     0.0005794576339295722     0.0007309426548555597     0.0008645572406264006     0.0009577975886087597     0.0009914293494984166     0.0009577975892551403     0.0008645572406264006     0.0007309426525193965     0.0005794576282128150     0.0004289634831949728     0.0002927856959250004     0.0001803344697584730     0.0000983687290213711     0.0000503710601349909     0.0000281267034346940     0.0000128129328620949     0.0000026031326244110     -0.0000040888461451811     -0.0000084177801603893     -0.0000109268281217470     -0.0000117595855798419 
    -0.0000117821431604926     -0.0000108909960798034     -0.0000082027314048619     -0.0000035414038809806     0.0000037362119645259     0.0000149655591829189     0.0000319275446953800     0.0000580496065721910     0.0001158520284676665     0.0002102301047377459     0.0003362982129399436     0.0004861562511411727     0.0006498283703590612     0.0008136119159118331     0.0009577975892551400     0.0010584049473893833     0.0010947037577383279     0.0010584049473893833     0.0009577975886087596     0.0008136119138113965     0.0006498283663821964     0.0004861562454511446     0.0003362982061094946     0.0002102300974549139     0.0001158520213372845     0.0000580496000351247     0.0000319275390099419     0.0000149655544492503     0.0000037362081875909     -0.0000035414067215220     -0.0000082027333137507     -0.0000108909970423197     -0.0000117821431604926 
    -0.0000117755281541641     -0.0000108644303177937     -0.0000081144070595389     -0.0000033367306004169     0.0000041492334312025     0.0000157451795827595     0.0000333024234585158     0.0000610181590384823     0.0001223954672549092     0.0002212369479301703     0.0003521589632736356     0.0005068766237717524     0.0006752414619287777     0.0008434320474056145     0.0009914293494984159     0.0010947037577383279     0.0011319698379147021     0.0010947037577383279     0.0009914293494984162     0.0008434320474056145     0.0006752414619287777     0.0005068766237717524     0.0003521589632736356     0.0002212369479301703     0.0001223954672549092     0.0000610181590384823     0.0000333024234585158     0.0000157451795827595     0.0000041492334312025     -0.0000033367306004169     -0.0000081144070595388     -0.0000108644303177936     -0.0000117755281541641 
    -0.0000117821431604926     -0.0000108909970423197     -0.0000082027333137507     -0.0000035414067215220     0.0000037362081875909     0.0000149655544492504     0.0000319275390099419     0.0000580496000351248     0.0001158520213372845     0.0002102300974549140     0.0003362982061094946     0.0004861562454511447     0.0006498283663821965     0.0008136119138113965     0.0009577975886087596     0.0010584049473893833     0.0010947037577383279     0.0010584049473893833     0.0009577975892551400     0.0008136119159118331     0.0006498283703590612     0.0004861562511411727     0.0003362982129399436     0.0002102301047377459     0.0001158520284676665     0.0000580496065721910     0.0000319275446953800     0.0000149655591829189     0.0000037362119645259     -0.0000035414038809806     -0.0000082027314048619     -0.0000108909960798034     -0.0000117821431604926 
    -0.0000117595855798419     -0.0000109268281217471     -0.0000084177801603893     -0.0000040888461451811     0.0000026031326244110     0.0000128129328620950     0.0000281267034346940     0.0000503710601349909     0.0000983687290213712     0.0001803344697584730     0.0002927856959250005     0.0004289634831949728     0.0005794576282128150     0.0007309426525193965     0.0008645572406264006     0.0009577975892551403     0.0009914293494984166     0.0009577975886087596     0.0008645572406264006     0.0007309426548555597     0.0005794576339295720     0.0004289634922447528     0.0002927857074153578     0.0001803344824689849     0.0000983687418009459     0.0000503710720979685     0.0000281267140234489     0.0000128129418113648     0.0000026031398505214     -0.0000040888406657813     -0.0000084177764610114     -0.0000109268262526395     -0.0000117595855798419 
    -0.0000115944468021620     -0.0000108542602700636     -0.0000086251239488314     -0.0000048004191427845     0.0000010313056612709     0.0000097760208325451     0.0000227425918777410     0.0000409849561847760     0.0000754113889178389     0.0001396138976956733     0.0002321621293434592     0.0003481181547097021     0.0004791408293624738     0.0006126243973952747     0.0007309426548555597     0.0008136119159118332     0.0008434320474056145     0.0008136119138113966     0.0007309426525193965     0.0006126243973952747     0.0004791408335671652     0.0003481181635597087     0.0002321621420200245     0.0001396139127349029     0.0000754114047775574     0.0000409849715831542     0.0000227426059274520     0.0000097760330154253     0.0000010313157001865     -0.0000048004114219623     -0.0000086251186927001     -0.0000108542576040954     -0.0000115944468021620 
    -0.0000111360169604542     -0.0000105160239633428     -0.0000086439082078112     -0.0000054382112754036     -0.0000006140673948662     0.0000064734524118574     0.0000168240501550661     0.0000314016988119613     0.0000533741913930322     0.0000978731898499366     0.0001674379561145710     0.0002594147692700195     0.0003671111421344319     0.0004791408335671653     0.0005794576339295720     0.0006498283703590612     0.0006752414619287777     0.0006498283663821964     0.0005794576282128150     0.0004791408293624739     0.0003671111421344319     0.0002594147746455212     0.0001674379664885199     0.0000978732038669689     0.0000533742073779422     0.0000314017152315808     0.0000168240658289086     0.0000064734665174794     -0.0000006140554297078     -0.0000054382018841857     -0.0000086439017352693     -0.0000105160206603186     -0.0000111360169604542 
    -0.0000102267699331168     -0.0000097470471851511     -0.0000082848493458262     -0.0000057614304067478     -0.0000019839802615921     0.0000034670161181602     0.0000112958444123893     0.0000223247531768394     0.0000370232003267797     0.0000632314723028873     0.0001099369657970446     0.0001768464858411025     0.0002594147746455213     0.0003481181635597088     0.0004289634922447528     0.0004861562511411727     0.0005068766237717524     0.0004861562454511446     0.0004289634831949729     0.0003481181547097021     0.0002594147692700195     0.0001768464858411025     0.0001099369714443922     0.0000632314826542649     0.0000370232138676821     0.0000223247683410739     0.0000112958598446590     0.0000034670307176251     -0.0000019839674003649     -0.0000057614200426759     -0.0000082848420854422     -0.0000097470434488506     -0.0000102267699331168 
    -0.0000087055073756217     -0.0000083800801086070     -0.0000073638360879661     -0.0000055564190237758     -0.0000028071945619770     0.0000011445526620994     0.0000067565172103349     0.0000146693783794480     0.0000254927907230250     0.0000399436136666596     0.0000667078208528409     0.0001099369714443922     0.0001674379664885200     0.0002321621420200246     0.0002927857074153578     0.0003362982129399437     0.0003521589632736356     0.0003362982061094946     0.0002927856959250005     0.0002321621293434592     0.0001674379561145710     0.0001099369657970446     0.0000667078208528409     0.0000399436189442337     0.0000254928001560838     0.0000146693905900578     0.0000067565308362773     0.0000011445664277521     -0.0000028071818492603     -0.0000055564084439982     -0.0000073638285265290     -0.0000083800761760493     -0.0000087055073756217 
    -0.0000063837305058405     -0.0000062247410805862     -0.0000056876282338041     -0.0000046307616606734     -0.0000028938931887503     -0.0000002946503396163     0.0000034512792698797     0.0000087956353718180     0.0000163044593835462     0.0000264658766493806     0.0000399436189442337     0.0000632314826542649     0.0000978732038669689     0.0001396139127349030     0.0001803344824689849     0.0002102301047377459     0.0002212369479301703     0.0002102300974549139     0.0001803344697584730     0.0001396138976956732     0.0000978731898499365     0.0000632314723028873     0.0000399436136666595     0.0000264658766493806     0.0000163044640446744     0.0000087956436663718     0.0000034512899952816     -0.0000002946384864154     -0.0000028938815737800     -0.0000046307516112401     -0.0000056876208770169     -0.0000062247372051280     -0.0000063837305058405 
    -0.0000030223322543746     -0.0000030458659350973     -0.0000030347504410187     -0.0000027919817777966     -0.0000021020213036367     -0.0000007801969342302     0.0000013710970761552     0.0000046468631444144     0.0000094686617406320     0.0000163044640446744     0.0000254928001560838     0.0000370232138676821     0.0000533742073779422     0.0000754114047775574     0.0000983687418009459     0.0001158520284676665     0.0001223954672549091     0.0001158520213372845     0.0000983687290213711     0.0000754113889178388     0.0000533741913930322     0.0000370232003267797     0.0000254927907230250     0.0000163044593835462     0.0000094686617406319     0.0000046468672067674     0.0000013711042833937     -0.0000007801877652009     -0.0000021020115672594     -0.0000027919729290413     -0.0000030347437683762     -0.0000030458623638849     -0.0000030223322543746 
    0.0000016578752834072     0.0000014256817220934     0.0000008352142710568     0.0000001530356184843     -0.0000003108496249578     -0.0000002981467040786     0.0000003889102873261     0.0000019500179234614     0.0000046468672067674     0.0000087956436663718     0.0000146693905900579     0.0000223247683410739     0.0000314017152315809     0.0000409849715831542     0.0000503710720979685     0.0000580496065721910     0.0000610181590384823     0.0000580496000351248     0.0000503710601349909     0.0000409849561847760     0.0000314016988119614     0.0000223247531768394     0.0000146693783794481     0.0000087956353718180     0.0000046468631444144     0.0000019500179234615     0.0000003889137824992     -0.0000002981406629057     -0.0000003108423212419     0.0000001530427367170     0.0000008352198570960     0.0000014256847751039     0.0000016578752834072 
    0.0000079042896311827     0.0000074230683190984     0.0000061182551759824     0.0000043495424635510     0.0000025602848253953     0.0000011398389209787     0.0000003583520098746     0.0000003889137824992     0.0000013711042833937     0.0000034512899952816     0.0000067565308362773     0.0000112958598446591     0.0000168240658289086     0.0000227426059274520     0.0000281267140234489     0.0000319275446953800     0.0000333024234585158     0.0000319275390099419     0.0000281267034346940     0.0000227425918777410     0.0000168240501550661     0.0000112958444123893     0.0000067565172103349     0.0000034512792698797     0.0000013710970761552     0.0000003889102873261     0.0000003583520098746     0.0000011398417620207     0.0000025602894414445     0.0000043495475361776     0.0000061182594069471     0.0000074230707031193     0.0000079042896311827 
    0.0000157861247965220     0.0000150030216200454     0.0000128411882591288     0.0000097924179371397     0.0000064789037415151     0.0000034650900043197     0.0000011398417620208     -0.0000002981406629057     -0.0000007801877652009     -0.0000002946384864154     0.0000011445664277520     0.0000034670307176251     0.0000064734665174795     0.0000097760330154253     0.0000128129418113648     0.0000149655591829190     0.0000157451795827595     0.0000149655544492504     0.0000128129328620949     0.0000097760208325450     0.0000064734524118574     0.0000034670161181602     0.0000011445526620994     -0.0000002946503396163     -0.0000007801969342302     -0.0000002981467040786     0.0000011398389209787     0.0000034650900043197     0.0000064789057900733     0.0000097924209365061     0.0000128411910548728     0.0000150030232758485     0.0000157861247965220 
    0.0000249956278883773     0.0000238575120852840     0.0000207001638793925     0.0000161970986427131     0.0000111995775571683     0.0000064789057900733     0.0000025602894414445     -0.0000003108423212419     -0.0000021020115672594     -0.0000028938815737800     -0.0000028071818492603     -0.0000019839674003649     -0.0000006140554297078     0.0000010313157001865     0.0000026031398505214     0.0000037362119645259     0.0000041492334312025     0.0000037362081875909     0.0000026031326244110     0.0000010313056612709     -0.0000006140673948662     -0.0000019839802615921     -0.0000028071945619770     -0.0000028938931887503     -0.0000021020213036367     -0.0000003108496249578     0.0000025602848253953     0.0000064789037415150     0.0000111995775571683     0.0000161970998612790     0.0000207001653771161     0.0000238575130617382     0.0000249956278883773 
    0.0000346795044478172     0.0000331571571645965     0.0000289346151309075     0.0000229085919416123     0.0000161970998612790     0.0000097924209365061     0.0000043495475361776     0.0000001530427367170     -0.0000027919729290413     -0.0000046307516112401     -0.0000055564084439983     -0.0000057614200426759     -0.0000054382018841858     -0.0000048004114219623     -0.0000040888406657813     -0.0000035414038809806     -0.0000033367306004169     -0.0000035414067215220     -0.0000040888461451811     -0.0000048004191427845     -0.0000054382112754036     -0.0000057614304067478     -0.0000055564190237758     -0.0000046307616606734     -0.0000027919817777966     0.0000001530356184842     0.0000043495424635510     0.0000097924179371396     0.0000161970986427131     0.0000229085919416122     0.0000289346156615466     0.0000331571576103298     0.0000346795044478172 
    0.0000434397635108812     0.0000415578704688332     0.0000363477312451750     0.0000289346156615466     0.0000207001653771161     0.0000128411910548728     0.0000061182594069471     0.0000008352198570960     -0.0000030347437683762     -0.0000056876208770169     -0.0000073638285265289     -0.0000082848420854422     -0.0000086439017352692     -0.0000086251186927001     -0.0000084177764610114     -0.0000082027314048619     -0.0000081144070595388     -0.0000082027333137507     -0.0000084177801603893     -0.0000086251239488314     -0.0000086439082078111     -0.0000082848493458262     -0.0000073638360879661     -0.0000056876282338041     -0.0000030347504410187     0.0000008352142710568     0.0000061182551759824     0.0000128411882591287     0.0000207001638793924     0.0000289346151309075     0.0000363477312451750     0.0000415578705915511     0.0000434397635108812 
    0.0000496228354024272     0.0000474800402402758     0.0000415578705915511     0.0000331571576103299     0.0000238575130617382     0.0000150030232758485     0.0000074230707031193     0.0000014256847751039     -0.0000030458623638849     -0.0000062247372051280     -0.0000083800761760493     -0.0000097470434488506     -0.0000105160206603186     -0.0000108542576040954     -0.0000109268262526396     -0.0000108909960798033     -0.0000108644303177937     -0.0000108909970423197     -0.0000109268281217471     -0.0000108542602700636     -0.0000105160239633427     -0.0000097470471851511     -0.0000083800801086069     -0.0000062247410805862     -0.0000030458659350973     0.0000014256817220934     0.0000074230683190984     0.0000150030216200454     0.0000238575120852840     0.0000331571571645965     0.0000415578704688332     0.0000474800402402758     0.0000496228354024272 
    0.0000518615494909899     0.0000496228354024272     0.0000434397635108812     0.0000346795044478172     0.0000249956278883773     0.0000157861247965220     0.0000079042896311827     0.0000016578752834072     -0.0000030223322543746     -0.0000063837305058405     -0.0000087055073756217     -0.0000102267699331168     -0.0000111360169604542     -0.0000115944468021620     -0.0000117595855798419     -0.0000117821431604926     -0.0000117755281541642     -0.0000117821431604926     -0.0000117595855798419     -0.0000115944468021620     -0.0000111360169604542     -0.0000102267699331168     -0.0000087055073756217     -0.0000063837305058405     -0.0000030223322543746     0.0000016578752834072     0.0000079042896311826     0.0000157861247965220     0.0000249956278883773     0.0000346795044478172     0.0000434397635108812     0.0000496228354024272     0.0000518615494909899 
    0.0001071564246347757     0.0001012727724255035     0.0000857857794022131     0.0000661675269334789     0.0000485501486537684     0.0000333435633650134     0.0000204686795015178     0.0000104095179868408     0.0000029810811735769     -0.0000023278824439978     -0.0000060782855214214     -0.0000087185769216624     -0.0000105385754442063     -0.0000117141904491270     -0.0000123864471456413     -0.0000127028422651253     -0.0000127910861452061     -0.0000127028422651253     -0.0000123864471456414     -0.0000117141904491270     -0.0000105385754442063     -0.0000087185769216624     -0.0000060782855214214     -0.0000023278824439978     0.0000029810811735769     0.0000104095179868408     0.0000204686795015178     0.0000333435633650134     0.0000485501486537684     0.0000661675269334789     0.0000857857794022131     0.0001012727724255035     0.0001071564246347757 
    0.0001012727724255035     0.0000957580462263625     0.0000812745453781708     0.0000630232468837498     0.0000465850080288015     0.0000319627597609652     0.0000195751245539426     0.0000098964171793022     0.0000027567788030512     -0.0000023304652437735     -0.0000059030929689925     -0.0000083934994023085     -0.0000100842760958249     -0.0000111517355739163     -0.0000117415097100113     -0.0000120061635116689     -0.0000120767832965329     -0.0000120061624930853     -0.0000117415077097903     -0.0000111517326801906     -0.0000100842724620280     -0.0000083934952453305     -0.0000059030885479900     -0.0000023304608303670     0.0000027567829499748     0.0000098964208303868     0.0000195751275243269     0.0000319627619330136     0.0000465850093857272     0.0000630232475394289     0.0000812745455675885     0.0000957580462263625     0.0001012727724255035 
    0.0000857857794022131     0.0000812745455675886     0.0000695147706588136     0.0000549545040248083     0.0000411473767606670     0.0000281463537613910     0.0000171206341976334     0.0000085143492991050     0.0000021953953595900     -0.0000022578599027011     -0.0000053200222328901     -0.0000073783428372958     -0.0000086944950918824     -0.0000094459803402529     -0.0000097926971802463     -0.0000099037256699142     -0.0000099217865187897     -0.0000099037236433647     -0.0000097926932094817     -0.0000094459746191670     -0.0000086944879525659     -0.0000073783347404688     -0.0000053200137176052     -0.0000022578515211611     0.0000021954030938537     0.0000085143559447894     0.0000171206394179448     0.0000281463573731748     0.0000411473787986614     0.0000549545047852495     0.0000695147706588136     0.0000812745453781708     0.0000857857794022131 
    0.0000661675269334789     0.0000630232475394289     0.0000549545047852495     0.0000446916903866688     0.0000334240941965185     0.0000227424533096892     0.0000136922093917646     0.0000066653781502703     0.0000015734700147159     -0.0000019182035317496     -0.0000041938599160070     -0.0000055728809167640     -0.0000062853164100875     -0.0000065138671803110     -0.0000064481642170655     -0.0000062933675890456     -0.0000062194945666310     -0.0000062933645751088     -0.0000064481583396307     -0.0000065138587818559     -0.0000062853060553808     -0.0000055728693598955     -0.0000041938480048655     -0.0000019181920988157     0.0000015734802302246     0.0000066653865485439     0.0000136922155606482     0.0000227424570997421     0.0000334240958049236     0.0000446916903866687     0.0000549545040248083     0.0000630232468837498     0.0000661675269334789 
    0.0000485501486537684     0.0000465850093857272     0.0000411473787986614     0.0000334240958049236     0.0000248825613778405     0.0000168059373748021     0.0000100152476655032     0.0000048315173621892     0.0000012045419348833     -0.0000011040260955496     -0.0000023694548644714     -0.0000028267539066167     -0.0000026715301295868     -0.0000021087558267258     -0.0000013924928978442     -0.0000008058812073560     -0.0000005803660189513     -0.0000008058772371297     -0.0000013924852181716     -0.0000021087450020042     -0.0000026715170385664     -0.0000028267396567298     -0.0000023694406285979     -0.0000011040129527111     0.0000012045530949873     0.0000048315258846662     0.0000100152531834218     0.0000168059398985782     0.0000248825613778405     0.0000334240941965185     0.0000411473767606670     0.0000465850080288015     0.0000485501486537684 
    0.0000333435633650134     0.0000319627619330136     0.0000281463573731748     0.0000227424570997421     0.0000168059398985782     0.0000112657315368468     0.0000067216074875281     0.0000034175338943849     0.0000013419332349443     0.0000003650007866666     0.0000003381094436528     0.0000011202548365490     0.0000025379615433187     0.0000043218283047447     0.0000060842296575743     0.0000073840065439860     0.0000078633098828277     0.0000073840114225205     0.0000060842389837479     0.0000043218411952651     0.0000025379767113245     0.0000011202707717867     0.0000003381246665618     0.0000003650140537978     0.0000013419436304575     0.0000034175408506931     0.0000067216108226008     0.0000112657315368468     0.0000168059373748021     0.0000227424533096892     0.0000281463537613911     0.0000319627597609652     0.0000333435633650134 
    0.0000204686795015178     0.0000195751275243269     0.0000171206394179448     0.0000136922155606482     0.0000100152531834218     0.0000067216108226008     0.0000042182125992383     0.0000026885757855395     0.0000021792851977088     0.0000026924703330376     0.0000042238301573535     0.0000067250997226056     0.0000100121360664949     0.0000136789398446860     0.0000170961886716297     0.0000195419328624461     0.0000204321754998508     0.0000195419385633526     0.0000170961994061007     0.0000136789543115446     0.0000100121524919900     0.0000067251161806872     0.0000042238449290274     0.0000026924821384391     0.0000021792932487268     0.0000026885797502306     0.0000042182125992383     0.0000067216074875280     0.0000100152476655032     0.0000136922093917646     0.0000171206341976334     0.0000195751245539426     0.0000204686795015178 
    0.0000104095179868408     0.0000098964208303868     0.0000085143559447894     0.0000066653865485440     0.0000048315258846662     0.0000034175408506932     0.0000026885797502306     0.0000028095239820857     0.0000039219649419069     0.0000061859871131893     0.0000097472222542227     0.0000146276920919382     0.0000205770430655821     0.0000269609360022464     0.0000327833521749607     0.0000369024131108622     0.0000383941957382105     0.0000369024194737420     0.0000327833639385681     0.0000269609513746157     0.0000205770597565355     0.0000146277078083811     0.0000097472351588523     0.0000061859960471974     0.0000039219693977256     0.0000028095239820857     0.0000026885757855395     0.0000034175338943849     0.0000048315173621892     0.0000066653781502703     0.0000085143492991050     0.0000098964171793022     0.0000104095179868408 
    0.0000029810811735769     0.0000027567829499749     0.0000021954030938537     0.0000015734802302247     0.0000012045530949873     0.0000013419436304576     0.0000021792932487268     0.0000039219693977256     0.0000068443054185076     0.0000112690264228367     0.0000174576937976644     0.0000254375294415347     0.0000348141097564958     0.0000455719652735117     0.0000575801505757494     0.0000671358903312300     0.0000707840187479181     0.0000671358970890447     0.0000575801627939369     0.0000455719806432558     0.0000348141255166952     0.0000254375430597742     0.0000174577034912125     0.0000112690313208354     0.0000068443054185076     0.0000039219649419069     0.0000021792851977088     0.0000013419332349442     0.0000012045419348833     0.0000015734700147159     0.0000021953953595900     0.0000027567788030512     0.0000029810811735769 
    -0.0000023278824439978     -0.0000023304608303670     -0.0000022578515211611     -0.0000019181920988157     -0.0000011040129527110     0.0000003650140537979     0.0000026924821384392     0.0000061859960471974     0.0000112690313208354     0.0000183786087881977     0.0000277817199625821     0.0000398719067390893     0.0000586859841711040     0.0000832300633285797     0.0001083597824316211     0.0001273232804053553     0.0001343925401875540     0.0001273232871734811     0.0001083597943218353     0.0000832300775505199     0.0000586859976254152     0.0000398719168621963     0.0000277817252383557     0.0000183786087881976     0.0000112690264228366     0.0000061859871131893     0.0000026924703330376     0.0000003650007866665     -0.0000011040260955497     -0.0000019182035317496     -0.0000022578599027011     -0.0000023304652437735     -0.0000023278824439978 
    -0.0000060782855214214     -0.0000059030885479900     -0.0000053200137176051     -0.0000041938480048655     -0.0000023694406285979     0.0000003381246665619     0.0000042238449290274     0.0000097472351588523     0.0000174577034912125     0.0000277817252383558     0.0000418544738233002     0.0000666078352804914     0.0001027536764235548     0.0001458680766912609     0.0001876919486972863     0.0002183059312319027     0.0002295628233029813     0.0002183059375126611     0.0001876919593042345     0.0001458680884776590     0.0001027536861779511     0.0000666078406754069     0.0000418544738233002     0.0000277817199625821     0.0000174576937976644     0.0000097472222542226     0.0000042238301573535     0.0000003381094436528     -0.0000023694548644714     -0.0000041938599160071     -0.0000053200222328901     -0.0000059030929689925     -0.0000060782855214214 
    -0.0000087185769216624     -0.0000083934952453304     -0.0000073783347404688     -0.0000055728693598955     -0.0000028267396567298     0.0000011202707717867     0.0000067251161806872     0.0000146277078083812     0.0000254375430597742     0.0000398719168621963     0.0000666078406754070     0.0001098122189040772     0.0001673103259761186     0.0002320591134781820     0.0002927247758568629     0.0003362762431112427     0.0003521527406613077     0.0003362762483329484     0.0002927247841710951     0.0002320591216342665     0.0001673103309631984     0.0001098122189040772     0.0000666078352804914     0.0000398719067390892     0.0000254375294415346     0.0000146276920919381     0.0000067250997226056     0.0000011202548365489     -0.0000028267539066167     -0.0000055728809167640     -0.0000073783428372958     -0.0000083934994023086     -0.0000087185769216624 
    -0.0000105385754442064     -0.0000100842724620280     -0.0000086944879525658     -0.0000062853060553808     -0.0000026715170385663     0.0000025379767113246     0.0000100121524919901     0.0000205770597565356     0.0000348141255166952     0.0000586859976254153     0.0001027536861779512     0.0001673103309631985     0.0002481132623557334     0.0003356696129158989     0.0004158443229995348     0.0004726885419084726     0.0004932996688616133     0.0004726885455729824     0.0004158443282605415     0.0003356696167828004     0.0002481132623557334     0.0001673103259761186     0.0001027536764235548     0.0000586859841711040     0.0000348141097564958     0.0000205770430655821     0.0000100121360664948     0.0000025379615433187     -0.0000026715301295868     -0.0000062853164100875     -0.0000086944950918824     -0.0000100842760958249     -0.0000105385754442064 
    -0.0000117141904491270     -0.0000111517326801905     -0.0000094459746191670     -0.0000065138587818559     -0.0000021087450020042     0.0000043218411952652     0.0000136789543115446     0.0000269609513746158     0.0000455719806432558     0.0000832300775505199     0.0001458680884776590     0.0002320591216342666     0.0003356696167828004     0.0004451385724093181     0.0005439236487897986     0.0006134325601332712     0.0006385565383216115     0.0006134325620820063     0.0005439236509506866     0.0004451385724093181     0.0003356696129158988     0.0002320591134781819     0.0001458680766912609     0.0000832300633285797     0.0000455719652735116     0.0000269609360022464     0.0000136789398446860     0.0000043218283047447     -0.0000021087558267258     -0.0000065138671803111     -0.0000094459803402529     -0.0000111517355739162     -0.0000117141904491270 
    -0.0000123864471456413     -0.0000117415077097903     -0.0000097926932094816     -0.0000064481583396307     -0.0000013924852181716     0.0000060842389837480     0.0000170961994061008     0.0000327833639385681     0.0000575801627939369     0.0001083597943218353     0.0001876919593042346     0.0002927247841710951     0.0004158443282605416     0.0005439236509506866     0.0006585088072262428     0.0007387923086169200     0.0007677619393881993     0.0007387923092206516     0.0006585088072262427     0.0005439236487897987     0.0004158443229995348     0.0002927247758568628     0.0001876919486972862     0.0001083597824316211     0.0000575801505757494     0.0000327833521749606     0.0000170961886716297     0.0000060842296575743     -0.0000013924928978442     -0.0000064481642170656     -0.0000097926971802463     -0.0000117415097100112     -0.0000123864471456413 
    -0.0000127028422651253     -0.0000120061624930852     -0.0000099037236433647     -0.0000062933645751087     -0.0000008058772371296     0.0000073840114225205     0.0000195419385633526     0.0000369024194737420     0.0000671358970890448     0.0001273232871734812     0.0002183059375126612     0.0003362762483329483     0.0004726885455729824     0.0006134325620820063     0.0007387923092206516     0.0008264421198034985     0.0008580449056879055     0.0008264421198034985     0.0007387923086169200     0.0006134325601332712     0.0004726885419084725     0.0003362762431112426     0.0002183059312319027     0.0001273232804053553     0.0000671358903312300     0.0000369024131108622     0.0000195419328624460     0.0000073840065439860     -0.0000008058812073560     -0.0000062933675890457     -0.0000099037256699141     -0.0000120061635116688     -0.0000127028422651253 
    -0.0000127910861452061     -0.0000120767832965329     -0.0000099217865187897     -0.0000062194945666310     -0.0000005803660189513     0.0000078633098828278     0.0000204321754998508     0.0000383941957382105     0.0000707840187479181     0.0001343925401875541     0.0002295628233029813     0.0003521527406613077     0.0004932996688616131     0.0006385565383216115     0.0007677619393881992     0.0008580449056879053     0.0008905897021257320     0.0008580449056879053     0.0007677619393881992     0.0006385565383216115     0.0004932996688616131     0.0003521527406613077     0.0002295628233029813     0.0001343925401875541     0.0000707840187479181     0.0000383941957382105     0.0000204321754998508     0.0000078633098828278     -0.0000005803660189513     -0.0000062194945666309     -0.0000099217865187897     -0.0000120767832965329     -0.0000127910861452061 
    -0.0000127028422651253     -0.0000120061635116688     -0.0000099037256699141     -0.0000062933675890456     -0.0000008058812073560     0.0000073840065439860     0.0000195419328624461     0.0000369024131108622     0.0000671358903312300     0.0001273232804053553     0.0002183059312319028     0.0003362762431112426     0.0004726885419084725     0.0006134325601332713     0.0007387923086169200     0.0008264421198034984     0.0008580449056879053     0.0008264421198034984     0.0007387923092206516     0.0006134325620820063     0.0004726885455729823     0.0003362762483329483     0.0002183059375126611     0.0001273232871734811     0.0000671358970890447     0.0000369024194737420     0.0000195419385633526     0.0000073840114225205     -0.0000008058772371296     -0.0000062933645751087     -0.0000099037236433647     -0.0000120061624930853     -0.0000127028422651253 
    -0.0000123864471456413     -0.0000117415097100113     -0.0000097926971802463     -0.0000064481642170655     -0.0000013924928978442     0.0000060842296575744     0.0000170961886716297     0.0000327833521749607     0.0000575801505757495     0.0001083597824316212     0.0001876919486972862     0.0002927247758568629     0.0004158443229995350     0.0005439236487897987     0.0006585088072262427     0.0007387923092206518     0.0007677619393881993     0.0007387923086169200     0.0006585088072262428     0.0005439236509506865     0.0004158443282605415     0.0002927247841710951     0.0001876919593042345     0.0001083597943218353     0.0000575801627939369     0.0000327833639385681     0.0000170961994061008     0.0000060842389837480     -0.0000013924852181716     -0.0000064481583396307     -0.0000097926932094816     -0.0000117415077097903     -0.0000123864471456413 
    -0.0000117141904491270     -0.0000111517355739162     -0.0000094459803402528     -0.0000065138671803110     -0.0000021087558267257     0.0000043218283047447     0.0000136789398446860     0.0000269609360022464     0.0000455719652735117     0.0000832300633285798     0.0001458680766912609     0.0002320591134781820     0.0003356696129158989     0.0004451385724093181     0.0005439236509506866     0.0006134325620820063     0.0006385565383216115     0.0006134325601332713     0.0005439236487897986     0.0004451385724093181     0.0003356696167828004     0.0002320591216342665     0.0001458680884776590     0.0000832300775505199     0.0000455719806432558     0.0000269609513746157     0.0000136789543115446     0.0000043218411952652     -0.0000021087450020042     -0.0000065138587818559     -0.0000094459746191670     -0.0000111517326801905     -0.0000117141904491270 
    -0.0000105385754442064     -0.0000100842760958249     -0.0000086944950918823     -0.0000062853164100875     -0.0000026715301295868     0.0000025379615433187     0.0000100121360664949     0.0000205770430655821     0.0000348141097564958     0.0000586859841711040     0.0001027536764235548     0.0001673103259761186     0.0002481132623557334     0.0003356696167828005     0.0004158443282605415     0.0004726885455729824     0.0004932996688616133     0.0004726885419084727     0.0004158443229995348     0.0003356696129158989     0.0002481132623557334     0.0001673103309631984     0.0001027536861779511     0.0000586859976254152     0.0000348141255166952     0.0000205770597565355     0.0000100121524919900     0.0000025379767113245     -0.0000026715170385664     -0.0000062853060553808     -0.0000086944879525658     -0.0000100842724620279     -0.0000105385754442064 
    -0.0000087185769216624     -0.0000083934994023086     -0.0000073783428372958     -0.0000055728809167640     -0.0000028267539066167     0.0000011202548365490     0.0000067250997226056     0.0000146276920919382     0.0000254375294415347     0.0000398719067390893     0.0000666078352804914     0.0001098122189040772     0.0001673103309631985     0.0002320591216342665     0.0002927247841710951     0.0003362762483329484     0.0003521527406613077     0.0003362762431112427     0.0002927247758568628     0.0002320591134781819     0.0001673103259761186     0.0001098122189040772     0.0000666078406754070     0.0000398719168621963     0.0000254375430597742     0.0000146277078083812     0.0000067251161806872     0.0000011202707717867     -0.0000028267396567298     -0.0000055728693598955     -0.0000073783347404688     -0.0000083934952453304     -0.0000087185769216624 
    -0.0000060782855214214     -0.0000059030929689925     -0.0000053200222328900     -0.0000041938599160070     -0.0000023694548644714     0.0000003381094436528     0.0000042238301573535     0.0000097472222542227     0.0000174576937976644     0.0000277817199625821     0.0000418544738233002     0.0000666078406754070     0.0001027536861779512     0.0001458680884776590     0.0001876919593042346     0.0002183059375126611     0.0002295628233029813     0.0002183059312319028     0.0001876919486972863     0.0001458680766912609     0.0001027536764235548     0.0000666078352804914     0.0000418544738233002     0.0000277817252383558     0.0000174577034912125     0.0000097472351588523     0.0000042238449290274     0.0000003381246665619     -0.0000023694406285979     -0.0000041938480048655     -0.0000053200137176052     -0.0000059030885479900     -0.0000060782855214214 
    -0.0000023278824439978     -0.0000023304652437734     -0.0000022578599027011     -0.0000019182035317496     -0.0000011040260955496     0.0000003650007866666     0.0000026924703330376     0.0000061859871131893     0.0000112690264228367     0.0000183786087881976     0.0000277817252383558     0.0000398719168621963     0.0000586859976254153     0.0000832300775505199     0.0001083597943218353     0.0001273232871734811     0.0001343925401875541     0.0001273232804053553     0.0001083597824316212     0.0000832300633285798     0.0000586859841711041     0.0000398719067390893     0.0000277817199625821     0.0000183786087881977     0.0000112690313208354     0.0000061859960471974     0.0000026924821384392     0.0000003650140537978     -0.0000011040129527111     -0.0000019181920988157     -0.0000022578515211611     -0.0000023304608303670     -0.0000023278824439978 
    0.0000029810811735770     0.0000027567788030513     0.0000021953953595901     0.0000015734700147159     0.0000012045419348833     0.0000013419332349443     0.0000021792851977088     0.0000039219649419069     0.0000068443054185076     0.0000112690313208354     0.0000174577034912125     0.0000254375430597742     0.0000348141255166952     0.0000455719806432558     0.0000575801627939369     0.0000671358970890447     0.0000707840187479181     0.0000671358903312300     0.0000575801505757494     0.0000455719652735117     0.0000348141097564958     0.0000254375294415347     0.0000174576937976644     0.0000112690264228367     0.0000068443054185076     0.0000039219693977256     0.0000021792932487268     0.0000013419436304576     0.0000012045530949873     0.0000015734802302247     0.0000021954030938537     0.0000027567829499749     0.0000029810811735770 
    0.0000104095179868408     0.0000098964171793022     0.0000085143492991050     0.0000066653781502703     0.0000048315173621892     0.0000034175338943849     0.0000026885757855395     0.0000028095239820857     0.0000039219693977256     0.0000061859960471974     0.0000097472351588523     0.0000146277078083812     0.0000205770597565355     0.0000269609513746157     0.0000327833639385681     0.0000369024194737420     0.0000383941957382105     0.0000369024131108622     0.0000327833521749607     0.0000269609360022464     0.0000205770430655821     0.0000146276920919382     0.0000097472222542227     0.0000061859871131893     0.0000039219649419069     0.0000028095239820857     0.0000026885797502306     0.0000034175408506932     0.0000048315258846662     0.0000066653865485440     0.0000085143559447894     0.0000098964208303868     0.0000104095179868408 
    0.0000204686795015178     0.0000195751245539426     0.0000171206341976334     0.0000136922093917646     0.0000100152476655032     0.0000067216074875280     0.0000042182125992382     0.0000026885797502306     0.0000021792932487268     0.0000026924821384391     0.0000042238449290274     0.0000067251161806872     0.0000100121524919901     0.0000136789543115446     0.0000170961994061008     0.0000195419385633526     0.0000204321754998508     0.0000195419328624461     0.0000170961886716297     0.0000136789398446860     0.0000100121360664949     0.0000067250997226056     0.0000042238301573535     0.0000026924703330376     0.0000021792851977088     0.0000026885757855395     0.0000042182125992383     0.0000067216108226008     0.0000100152531834218     0.0000136922155606482     0.0000171206394179448     0.0000195751275243269     0.0000204686795015178 
    0.0000333435633650134     0.0000319627597609652     0.0000281463537613911     0.0000227424533096892     0.0000168059373748021     0.0000112657315368468     0.0000067216108226008     0.0000034175408506932     0.0000013419436304576     0.0000003650140537978     0.0000003381246665618     0.0000011202707717867     0.0000025379767113245     0.0000043218411952652     0.0000060842389837480     0.0000073840114225205     0.0000078633098828278     0.0000073840065439860     0.0000060842296575743     0.0000043218283047447     0.0000025379615433187     0.0000011202548365490     0.0000003381094436528     0.0000003650007866666     0.0000013419332349443     0.0000034175338943849     0.0000067216074875281     0.0000112657315368468     0.0000168059398985782     0.0000227424570997421     0.0000281463573731748     0.0000319627619330136     0.0000333435633650134 
    0.0000485501486537684     0.0000465850080288015     0.0000411473767606670     0.0000334240941965185     0.0000248825613778405     0.0000168059398985782     0.0000100152531834218     0.0000048315258846662     0.0000012045530949873     -0.0000011040129527111     -0.0000023694406285979     -0.0000028267396567298     -0.0000026715170385664     -0.0000021087450020042     -0.0000013924852181716     -0.0000008058772371297     -0.0000005803660189514     -0.0000008058812073560     -0.0000013924928978442     -0.0000021087558267258     -0.0000026715301295868     -0.0000028267539066167     -0.0000023694548644714     -0.0000011040260955496     0.0000012045419348833     0.0000048315173621892     0.0000100152476655032     0.0000168059373748021     0.0000248825613778405     0.0000334240958049237     0.0000411473787986614     0.0000465850093857272     0.0000485501486537684 
    0.0000661675269334789     0.0000630232468837498     0.0000549545040248083     0.0000446916903866687     0.0000334240958049236     0.0000227424570997421     0.0000136922155606482     0.0000066653865485439     0.0000015734802302246     -0.0000019181920988157     -0.0000041938480048655     -0.0000055728693598955     -0.0000062853060553808     -0.0000065138587818559     -0.0000064481583396307     -0.0000062933645751088     -0.0000062194945666310     -0.0000062933675890457     -0.0000064481642170655     -0.0000065138671803110     -0.0000062853164100875     -0.0000055728809167640     -0.0000041938599160070     -0.0000019182035317496     0.0000015734700147159     0.0000066653781502703     0.0000136922093917646     0.0000227424533096892     0.0000334240941965185     0.0000446916903866688     0.0000549545047852495     0.0000630232475394289     0.0000661675269334789 
    0.0000857857794022131     0.0000812745453781708     0.0000695147706588136     0.0000549545047852495     0.0000411473787986614     0.0000281463573731748     0.0000171206394179448     0.0000085143559447894     0.0000021954030938537     -0.0000022578515211611     -0.0000053200137176052     -0.0000073783347404688     -0.0000086944879525658     -0.0000094459746191671     -0.0000097926932094817     -0.0000099037236433647     -0.0000099217865187898     -0.0000099037256699142     -0.0000097926971802463     -0.0000094459803402529     -0.0000086944950918824     -0.0000073783428372958     -0.0000053200222328901     -0.0000022578599027011     0.0000021953953595901     0.0000085143492991050     0.0000171206341976334     0.0000281463537613911     0.0000411473767606670     0.0000549545040248083     0.0000695147706588136     0.0000812745455675885     0.0000857857794022131 
    0.0001012727724255035     0.0000957580462263625     0.0000812745455675885     0.0000630232475394289     0.0000465850093857272     0.0000319627619330136     0.0000195751275243269     0.0000098964208303868     0.0000027567829499749     -0.0000023304608303670     -0.0000059030885479900     -0.0000083934952453305     -0.0000100842724620280     -0.0000111517326801906     -0.0000117415077097903     -0.0000120061624930853     -0.0000120767832965329     -0.0000120061635116688     -0.0000117415097100113     -0.0000111517355739162     -0.0000100842760958248     -0.0000083934994023085     -0.0000059030929689925     -0.0000023304652437734     0.0000027567788030513     0.0000098964171793022     0.0000195751245539426     0.0000319627597609652     0.0000465850080288015     0.0000630232468837498     0.0000812745453781708     0.0000957580462263625     0.0001012727724255035 
    0.0001071564246347757     0.0001012727724255035     0.0000857857794022131     0.0000661675269334789     0.0000485501486537684     0.0000333435633650134     0.0000204686795015178     0.0000104095179868408     0.0000029810811735769     -0.0000023278824439978     -0.0000060782855214214     -0.0000087185769216624     -0.0000105385754442063     -0.0000117141904491270     -0.0000123864471456413     -0.0000127028422651253     -0.0000127910861452061     -0.0000127028422651253     -0.0000123864471456414     -0.0000117141904491270     -0.0000105385754442063     -0.0000087185769216624     -0.0000060782855214214     -0.0000023278824439978     0.0000029810811735769     0.0000104095179868408     0.0000204686795015178     0.0000333435633650134     0.0000485501486537684     0.0000661675269334789     0.0000857857794022131     0.0001012727724255035     0.0001071564246347757 
    0.0002328747686011735     0.0002205844139373698     0.0001873221925778546     0.0001424139510702007     0.0000972096591174764     0.0000610611959707736     0.0000384259843075817     0.0000230015875428935     0.0000115607514882979     0.0000034013246181808     -0.0000023397137456833     -0.0000064079524380667     -0.0000093035950235258     -0.0000113034728858211     -0.0000125704752643029     -0.0000132455998643704     -0.0000134531738795454     -0.0000132455998643704     -0.0000125704752643029     -0.0000113034728858211     -0.0000093035950235258     -0.0000064079524380667     -0.0000023397137456833     0.0000034013246181808     0.0000115607514882979     0.0000230015875428935     0.0000384259843075818     0.0000610611959707737     0.0000972096591174764     0.0001424139510702007     0.0001873221925778547     0.0002205844139373698     0.0002328747686011735 
    0.0002205844139373698     0.0002088828650287190     0.0001772501379649138     0.0001346491660903379     0.0000919587942039501     0.0000580828721386681     0.0000369293896249185     0.0000220671588339961     0.0000110430993536723     0.0000031830987151348     -0.0000023422919093929     -0.0000062493302434843     -0.0000090184873782821     -0.0000109175634420172     -0.0000121086913375355     -0.0000127360700606183     -0.0000129273040110217     -0.0000127360690151139     -0.0000121086892664542     -0.0000109175604100139     -0.0000090184835208469     -0.0000062493257693137     -0.0000023422870757078     0.0000031831036357795     0.0000110431040961937     0.0000220671631492556     0.0000369293932825385     0.0000580828749426089     0.0000919587960434744     0.0001346491670198492     0.0001772501382430633     0.0002088828650287190     0.0002205844139373698 
    0.0001873221925778548     0.0001772501382430633     0.0001501214189931499     0.0001138799942178952     0.0000780827989662450     0.0000503798111804233     0.0000327977293542344     0.0000195051088821291     0.0000096524629372294     0.0000026402941709487     -0.0000022697422994482     -0.0000057134066333231     -0.0000081168032859007     -0.0000097232011094547     -0.0000106935036654419     -0.0000111817563320710     -0.0000113253554034815     -0.0000111817542481203     -0.0000106934995471509     -0.0000097231951065389     -0.0000081167956992689     -0.0000057133979146298     -0.0000022697329939508     0.0000026403034972631     0.0000096524717460145     0.0000195051166818037     0.0000327977357140893     0.0000503798157752506     0.0000780828016794906     0.0001138799952740300     0.0001501214189931499     0.0001772501379649139     0.0001873221925778548 
    0.0001424139510702007     0.0001346491670198492     0.0001138799952740300     0.0000865606944724557     0.0000603190812517428     0.0000409643587874568     0.0000269594738689375     0.0000159385732864885     0.0000078016354460477     0.0000020491695144428     -0.0000019303962665901     -0.0000046588131264056     -0.0000064856722764285     -0.0000076225180845093     -0.0000082340423885848     -0.0000084944656691639     -0.0000085597633777981     -0.0000084944625765551     -0.0000082340363058413     -0.0000076225092906574     -0.0000064856612954655     -0.0000046588007101406     -0.0000019303832896919     0.0000020491821773410     0.0000078016469971832     0.0000159385830354755     0.0000269594812655262     0.0000409643635058101     0.0000603190833358226     0.0000865606944724557     0.0001138799942178952     0.0001346491660903380     0.0001424139510702007 
    0.0000972096591174764     0.0000919587960434744     0.0000780828016794906     0.0000603190833358226     0.0000440807571910451     0.0000313555835397903     0.0000205615018586161     0.0000121299943719927     0.0000059800647059834     0.0000017206330761856     -0.0000011170629226005     -0.0000029257449812812     -0.0000039731719347729     -0.0000044477032259672     -0.0000045375497542616     -0.0000044602822847395     -0.0000044084279393665     -0.0000044602782539037     -0.0000045375418870659     -0.0000044476919988781     -0.0000039731581712294     -0.0000029257297919150     -0.0000011170475322017     0.0000017206475092358     0.0000059800771920459     0.0000121300041261411     0.0000205615083485592     0.0000313555866023875     0.0000440807571910451     0.0000603190812517428     0.0000780827989662450     0.0000919587942039501     0.0000972096591174764 
    0.0000610611959707736     0.0000580828749426088     0.0000503798157752505     0.0000409643635058101     0.0000313555866023875     0.0000222630985795042     0.0000146031830319624     0.0000087332053085304     0.0000045924549168267     0.0000019043169191616     0.0000003502697674288     -0.0000003324774759208     -0.0000003437423198552     0.0000001193197993829     0.0000007995170583733     0.0000013881119007533     0.0000016195530751018     0.0000013881167516014     0.0000007995264217873     0.0000001193329188536     -0.0000003437266442173     -0.0000003324607483533     0.0000003502859985672     0.0000019043312960651     0.0000045924663842871     0.0000087332131392812     0.0000146031868738534     0.0000222630985795042     0.0000313555835397903     0.0000409643587874568     0.0000503798111804232     0.0000580828721386681     0.0000610611959707736 
    0.0000384259843075818     0.0000369293932825385     0.0000327977357140893     0.0000269594812655263     0.0000205615083485592     0.0000146031868738534     0.0000097197031034227     0.0000061602099506837     0.0000039004958269292     0.0000027926809852670     0.0000026749024353443     0.0000034044927886371     0.0000048163214093625     0.0000066458780929704     0.0000084898039312747     0.0000098678485043978     0.0000103794180725085     0.0000098678540098815     0.0000084898144053743     0.0000066458924209053     0.0000048163379610221     0.0000034045096761072     0.0000026749178699558     0.0000027926935465240     0.0000039005045540574     0.0000061602143326443     0.0000097197031034226     0.0000146031830319623     0.0000205615018586161     0.0000269594738689375     0.0000327977293542343     0.0000369293896249186     0.0000384259843075818 
    0.0000230015875428935     0.0000220671631492557     0.0000195051166818037     0.0000159385830354755     0.0000121300041261412     0.0000087332131392812     0.0000061602143326444     0.0000045910973463168     0.0000040686214774975     0.0000045938109097453     0.0000061642874461669     0.0000087362259740291     0.0000121291118762635     0.0000159314895469647     0.0000194911097133939     0.0000220477123162980     0.0000229800723864818     0.0000220477182609566     0.0000194911208205647     0.0000159315042905397     0.0000121291281884755     0.0000087362416505933     0.0000061643005911843     0.0000045938202034836     0.0000040686262099549     0.0000045910973463168     0.0000061602099506836     0.0000087332053085304     0.0000121299943719927     0.0000159385732864885     0.0000195051088821291     0.0000220671588339961     0.0000230015875428935 
    0.0000115607514882979     0.0000110431040961937     0.0000096524717460145     0.0000078016469971832     0.0000059800771920459     0.0000045924663842872     0.0000039005045540575     0.0000040686262099550     0.0000052422133308964     0.0000075851161191503     0.0000112421139246143     0.0000162289473774256     0.0000222863295713260     0.0000287709795125150     0.0000346776540932467     0.0000388553857504209     0.0000404165209604520     0.0000388553918634163     0.0000346776652592643     0.0000287709937789961     0.0000222863444862627     0.0000162289605499406     0.0000112421235221060     0.0000075851210861401     0.0000052422133308964     0.0000040686214774975     0.0000039004958269291     0.0000045924549168267     0.0000059800647059834     0.0000078016354460477     0.0000096524629372294     0.0000110430993536723     0.0000115607514882979 
    0.0000034013246181808     0.0000031831036357795     0.0000026403034972631     0.0000020491821773411     0.0000017206475092359     0.0000019043312960651     0.0000027926935465241     0.0000045938202034836     0.0000075851210861401     0.0000120863738868499     0.0000183463018468180     0.0000263729829637073     0.0000357586736567548     0.0000472951445091059     0.0000600913282534519     0.0000701994651934130     0.0000740464351077858     0.0000701994711469373     0.0000600913388100553     0.0000472951573210008     0.0000357586860073900     0.0000263729924643463     0.0000183463069215187     0.0000120863738868499     0.0000075851161191503     0.0000045938109097453     0.0000027926809852669     0.0000019043169191615     0.0000017206330761856     0.0000020491695144428     0.0000026402941709487     0.0000031830987151348     0.0000034013246181808 
    -0.0000023397137456833     -0.0000023422870757078     -0.0000022697329939508     -0.0000019303832896919     -0.0000011170475322017     0.0000003502859985672     0.0000026749178699558     0.0000061643005911843     0.0000112421235221060     0.0000183463069215187     0.0000277456469830466     0.0000398355020848028     0.0000586520914429393     0.0000832063635446074     0.0001083526527648382     0.0001273317040198730     0.0001344073139231624     0.0001273317094269370     0.0001083526619671420     0.0000832063739002248     0.0000586521001617410     0.0000398355070104657     0.0000277456469830466     0.0000183463018468179     0.0000112421139246142     0.0000061642874461669     0.0000026749024353442     0.0000003502697674288     -0.0000011170629226005     -0.0000019303962665901     -0.0000022697422994482     -0.0000023422919093928     -0.0000023397137456833 
    -0.0000064079524380667     -0.0000062493257693137     -0.0000057133979146298     -0.0000046588007101406     -0.0000029257297919150     -0.0000003324607483532     0.0000034045096761073     0.0000087362416505933     0.0000162289605499406     0.0000263729924643463     0.0000398355070104657     0.0000631044908020818     0.0000977451114734132     0.0001395153111502747     0.0001802868661555631     0.0002102303288153879     0.0002212566390259016     0.0002102303332461474     0.0001802868732512467     0.0001395153181809285     0.0000977451158353799     0.0000631044908020818     0.0000398355020848028     0.0000263729829637073     0.0000162289473774256     0.0000087362259740291     0.0000034044927886370     -0.0000003324774759209     -0.0000029257449812812     -0.0000046588131264057     -0.0000057134066333231     -0.0000062493302434843     -0.0000064079524380667 
    -0.0000093035950235258     -0.0000090184835208468     -0.0000081167956992689     -0.0000064856612954655     -0.0000039731581712294     -0.0000003437266442173     0.0000048163379610221     0.0000121291281884755     0.0000222863444862627     0.0000357586860073900     0.0000586521001617410     0.0000977451158353799     0.0001514050567995277     0.0002129394299836386     0.0002711924042967877     0.0003132383789177809     0.0003286007848804072     0.0003132383820019197     0.0002711924087412225     0.0002129394332735133     0.0001514050567995277     0.0000977451114734132     0.0000586520914429393     0.0000357586736567547     0.0000222863295713260     0.0000121291118762635     0.0000048163214093625     -0.0000003437423198552     -0.0000039731719347729     -0.0000064856722764285     -0.0000081168032859007     -0.0000090184873782820     -0.0000093035950235258 
    -0.0000113034728858211     -0.0000109175604100139     -0.0000097231951065389     -0.0000076225092906574     -0.0000044476919988781     0.0000001193329188536     0.0000066458924209053     0.0000159315042905397     0.0000287709937789961     0.0000472951573210008     0.0000832063739002248     0.0001395153181809285     0.0002129394332735134     0.0002944722004490439     0.0003701553941195772     0.0004241799352578477     0.0004438213659621101     0.0004241799368920033     0.0003701553959352962     0.0002944722004490439     0.0002129394299836386     0.0001395153111502746     0.0000832063635446074     0.0000472951445091059     0.0000287709795125150     0.0000159314895469647     0.0000066458780929703     0.0000001193197993828     -0.0000044477032259672     -0.0000076225180845093     -0.0000097232011094547     -0.0000109175634420172     -0.0000113034728858211 
    -0.0000125704752643029     -0.0000121086892664542     -0.0000106934995471510     -0.0000082340363058414     -0.0000045375418870659     0.0000007995264217873     0.0000084898144053743     0.0000194911208205648     0.0000346776652592644     0.0000600913388100553     0.0001083526619671421     0.0001802868732512468     0.0002711924087412226     0.0003701553959352962     0.0004609135515119551     0.0005252607095240895     0.0005485845940111791     0.0005252607100298335     0.0004609135515119550     0.0003701553941195772     0.0002711924042967876     0.0001802868661555631     0.0001083526527648382     0.0000600913282534518     0.0000346776540932467     0.0000194911097133938     0.0000084898039312747     0.0000007995170583733     -0.0000045375497542617     -0.0000082340423885848     -0.0000106935036654420     -0.0000121086913375355     -0.0000125704752643029 
    -0.0000132455998643703     -0.0000127360690151138     -0.0000111817542481203     -0.0000084944625765551     -0.0000044602782539037     0.0000013881167516014     0.0000098678540098816     0.0000220477182609567     0.0000388553918634163     0.0000701994711469374     0.0001273317094269370     0.0002102303332461475     0.0003132383820019197     0.0004241799368920034     0.0005252607100298334     0.0005966652060172046     0.0006225052832051355     0.0005966652060172046     0.0005252607095240894     0.0004241799352578478     0.0003132383789177807     0.0002102303288153879     0.0001273317040198730     0.0000701994651934129     0.0000388553857504209     0.0000220477123162979     0.0000098678485043978     0.0000013881119007532     -0.0000044602822847395     -0.0000084944656691639     -0.0000111817563320710     -0.0000127360700606183     -0.0000132455998643703 
    -0.0000134531738795454     -0.0000129273040110217     -0.0000113253554034814     -0.0000085597633777981     -0.0000044084279393664     0.0000016195530751018     0.0000103794180725085     0.0000229800723864818     0.0000404165209604521     0.0000740464351077858     0.0001344073139231624     0.0002212566390259017     0.0003286007848804072     0.0004438213659621102     0.0005485845940111791     0.0006225052832051358     0.0006492422958343358     0.0006225052832051356     0.0005485845940111790     0.0004438213659621101     0.0003286007848804071     0.0002212566390259016     0.0001344073139231623     0.0000740464351077858     0.0000404165209604520     0.0000229800723864817     0.0000103794180725084     0.0000016195530751018     -0.0000044084279393665     -0.0000085597633777981     -0.0000113253554034814     -0.0000129273040110217     -0.0000134531738795454 
    -0.0000132455998643703     -0.0000127360700606183     -0.0000111817563320710     -0.0000084944656691639     -0.0000044602822847395     0.0000013881119007532     0.0000098678485043978     0.0000220477123162980     0.0000388553857504209     0.0000701994651934130     0.0001273317040198730     0.0002102303288153879     0.0003132383789177809     0.0004241799352578478     0.0005252607095240895     0.0005966652060172046     0.0006225052832051355     0.0005966652060172045     0.0005252607100298334     0.0004241799368920033     0.0003132383820019196     0.0002102303332461473     0.0001273317094269369     0.0000701994711469373     0.0000388553918634162     0.0000220477182609566     0.0000098678540098815     0.0000013881167516014     -0.0000044602782539037     -0.0000084944625765551     -0.0000111817542481202     -0.0000127360690151138     -0.0000132455998643703 
    -0.0000125704752643029     -0.0000121086913375355     -0.0000106935036654420     -0.0000082340423885848     -0.0000045375497542616     0.0000007995170583733     0.0000084898039312747     0.0000194911097133939     0.0000346776540932467     0.0000600913282534519     0.0001083526527648383     0.0001802868661555631     0.0002711924042967877     0.0003701553941195773     0.0004609135515119550     0.0005252607100298335     0.0005485845940111791     0.0005252607095240894     0.0004609135515119550     0.0003701553959352960     0.0002711924087412225     0.0001802868732512467     0.0001083526619671420     0.0000600913388100552     0.0000346776652592643     0.0000194911208205647     0.0000084898144053743     0.0000007995264217873     -0.0000045375418870659     -0.0000082340363058413     -0.0000106934995471510     -0.0000121086892664542     -0.0000125704752643029 
    -0.0000113034728858211     -0.0000109175634420172     -0.0000097232011094547     -0.0000076225180845093     -0.0000044477032259672     0.0000001193197993829     0.0000066458780929703     0.0000159314895469648     0.0000287709795125150     0.0000472951445091059     0.0000832063635446075     0.0001395153111502747     0.0002129394299836386     0.0002944722004490439     0.0003701553959352962     0.0004241799368920034     0.0004438213659621101     0.0004241799352578477     0.0003701553941195772     0.0002944722004490439     0.0002129394332735133     0.0001395153181809285     0.0000832063739002248     0.0000472951573210008     0.0000287709937789961     0.0000159315042905397     0.0000066458924209053     0.0000001193329188536     -0.0000044476919988781     -0.0000076225092906574     -0.0000097231951065389     -0.0000109175604100139     -0.0000113034728858211 
    -0.0000093035950235258     -0.0000090184873782820     -0.0000081168032859007     -0.0000064856722764285     -0.0000039731719347729     -0.0000003437423198552     0.0000048163214093625     0.0000121291118762635     0.0000222863295713260     0.0000357586736567548     0.0000586520914429394     0.0000977451114734132     0.0001514050567995277     0.0002129394332735134     0.0002711924087412226     0.0003132383820019197     0.0003286007848804072     0.0003132383789177809     0.0002711924042967876     0.0002129394299836385     0.0001514050567995277     0.0000977451158353799     0.0000586521001617410     0.0000357586860073899     0.0000222863444862627     0.0000121291281884755     0.0000048163379610220     -0.0000003437266442173     -0.0000039731581712294     -0.0000064856612954656     -0.0000081167956992689     -0.0000090184835208468     -0.0000093035950235258 
    -0.0000064079524380667     -0.0000062493302434843     -0.0000057134066333230     -0.0000046588131264056     -0.0000029257449812812     -0.0000003324774759208     0.0000034044927886371     0.0000087362259740291     0.0000162289473774256     0.0000263729829637073     0.0000398355020848028     0.0000631044908020819     0.0000977451158353800     0.0001395153181809285     0.0001802868732512467     0.0002102303332461474     0.0002212566390259016     0.0002102303288153880     0.0001802868661555631     0.0001395153111502746     0.0000977451114734132     0.0000631044908020818     0.0000398355070104657     0.0000263729924643463     0.0000162289605499406     0.0000087362416505933     0.0000034045096761072     -0.0000003324607483533     -0.0000029257297919151     -0.0000046588007101406     -0.0000057133979146298     -0.0000062493257693137     -0.0000064079524380667 
    -0.0000023397137456833     -0.0000023422919093929     -0.0000022697422994482     -0.0000019303962665901     -0.0000011170629226005     0.0000003502697674288     0.0000026749024353442     0.0000061642874461669     0.0000112421139246143     0.0000183463018468180     0.0000277456469830467     0.0000398355070104657     0.0000586521001617410     0.0000832063739002248     0.0001083526619671421     0.0001273317094269370     0.0001344073139231624     0.0001273317040198730     0.0001083526527648383     0.0000832063635446074     0.0000586520914429394     0.0000398355020848028     0.0000277456469830467     0.0000183463069215187     0.0000112421235221060     0.0000061643005911843     0.0000026749178699558     0.0000003502859985672     -0.0000011170475322017     -0.0000019303832896919     -0.0000022697329939508     -0.0000023422870757078     -0.0000023397137456833 
    0.0000034013246181808     0.0000031830987151348     0.0000026402941709487     0.0000020491695144428     0.0000017206330761856     0.0000019043169191615     0.0000027926809852669     0.0000045938109097453     0.0000075851161191503     0.0000120863738868499     0.0000183463069215187     0.0000263729924643463     0.0000357586860073900     0.0000472951573210008     0.0000600913388100553     0.0000701994711469373     0.0000740464351077858     0.0000701994651934130     0.0000600913282534519     0.0000472951445091059     0.0000357586736567548     0.0000263729829637073     0.0000183463018468179     0.0000120863738868499     0.0000075851210861401     0.0000045938202034836     0.0000027926935465240     0.0000019043312960651     0.0000017206475092358     0.0000020491821773410     0.0000026403034972631     0.0000031831036357795     0.0000034013246181808 
    0.0000115607514882979     0.0000110430993536723     0.0000096524629372294     0.0000078016354460477     0.0000059800647059834     0.0000045924549168267     0.0000039004958269292     0.0000040686214774975     0.0000052422133308964     0.0000075851210861401     0.0000112421235221061     0.0000162289605499406     0.0000222863444862627     0.0000287709937789961     0.0000346776652592643     0.0000388553918634162     0.0000404165209604520     0.0000388553857504209     0.0000346776540932467     0.0000287709795125150     0.0000222863295713260     0.0000162289473774256     0.0000112421139246142     0.0000075851161191503     0.0000052422133308964     0.0000040686262099549     0.0000039005045540574     0.0000045924663842872     0.0000059800771920459     0.0000078016469971832     0.0000096524717460145     0.0000110431040961937     0.0000115607514882979 
    0.0000230015875428935     0.0000220671588339962     0.0000195051088821292     0.0000159385732864885     0.0000121299943719927     0.0000087332053085304     0.0000061602099506836     0.0000045910973463168     0.0000040686262099550     0.0000045938202034836     0.0000061643005911844     0.0000087362416505933     0.0000121291281884755     0.0000159315042905397     0.0000194911208205648     0.0000220477182609567     0.0000229800723864818     0.0000220477123162980     0.0000194911097133939     0.0000159314895469648     0.0000121291118762635     0.0000087362259740291     0.0000061642874461669     0.0000045938109097453     0.0000040686214774975     0.0000045910973463168     0.0000061602143326444     0.0000087332131392812     0.0000121300041261412     0.0000159385830354755     0.0000195051166818037     0.0000220671631492557     0.0000230015875428935 
    0.0000384259843075818     0.0000369293896249186     0.0000327977293542343     0.0000269594738689375     0.0000205615018586161     0.0000146031830319624     0.0000097197031034227     0.0000061602143326444     0.0000039005045540575     0.0000027926935465240     0.0000026749178699558     0.0000034045096761073     0.0000048163379610221     0.0000066458924209053     0.0000084898144053743     0.0000098678540098815     0.0000103794180725085     0.0000098678485043978     0.0000084898039312747     0.0000066458780929703     0.0000048163214093625     0.0000034044927886370     0.0000026749024353442     0.0000027926809852669     0.0000039004958269291     0.0000061602099506836     0.0000097197031034226     0.0000146031868738534     0.0000205615083485592     0.0000269594812655262     0.0000327977357140892     0.0000369293932825385     0.0000384259843075818 
    0.0000610611959707737     0.0000580828721386681     0.0000503798111804232     0.0000409643587874568     0.0000313555835397903     0.0000222630985795042     0.0000146031868738534     0.0000087332131392812     0.0000045924663842871     0.0000019043312960651     0.0000003502859985672     -0.0000003324607483532     -0.0000003437266442173     0.0000001193329188536     0.0000007995264217873     0.0000013881167516014     0.0000016195530751018     0.0000013881119007532     0.0000007995170583733     0.0000001193197993829     -0.0000003437423198552     -0.0000003324774759209     0.0000003502697674288     0.0000019043169191615     0.0000045924549168267     0.0000087332053085304     0.0000146031830319624     0.0000222630985795042     0.0000313555866023875     0.0000409643635058101     0.0000503798157752505     0.0000580828749426088     0.0000610611959707737 
    0.0000972096591174765     0.0000919587942039501     0.0000780827989662450     0.0000603190812517428     0.0000440807571910451     0.0000313555866023875     0.0000205615083485592     0.0000121300041261411     0.0000059800771920459     0.0000017206475092358     -0.0000011170475322017     -0.0000029257297919150     -0.0000039731581712294     -0.0000044476919988781     -0.0000045375418870659     -0.0000044602782539036     -0.0000044084279393665     -0.0000044602822847395     -0.0000045375497542616     -0.0000044477032259672     -0.0000039731719347729     -0.0000029257449812812     -0.0000011170629226005     0.0000017206330761856     0.0000059800647059834     0.0000121299943719927     0.0000205615018586162     0.0000313555835397903     0.0000440807571910452     0.0000603190833358226     0.0000780828016794906     0.0000919587960434744     0.0000972096591174765 
    0.0001424139510702007     0.0001346491660903379     0.0001138799942178952     0.0000865606944724557     0.0000603190833358226     0.0000409643635058101     0.0000269594812655262     0.0000159385830354755     0.0000078016469971832     0.0000020491821773410     -0.0000019303832896919     -0.0000046588007101406     -0.0000064856612954655     -0.0000076225092906574     -0.0000082340363058413     -0.0000084944625765551     -0.0000085597633777981     -0.0000084944656691639     -0.0000082340423885848     -0.0000076225180845093     -0.0000064856722764285     -0.0000046588131264056     -0.0000019303962665901     0.0000020491695144428     0.0000078016354460477     0.0000159385732864885     0.0000269594738689375     0.0000409643587874568     0.0000603190812517428     0.0000865606944724557     0.0001138799952740300     0.0001346491670198492     0.0001424139510702007 
    0.0001873221925778547     0.0001772501379649138     0.0001501214189931498     0.0001138799952740300     0.0000780828016794906     0.0000503798157752505     0.0000327977357140892     0.0000195051166818037     0.0000096524717460145     0.0000026403034972631     -0.0000022697329939508     -0.0000057133979146298     -0.0000081167956992689     -0.0000097231951065389     -0.0000106934995471509     -0.0000111817542481203     -0.0000113253554034814     -0.0000111817563320710     -0.0000106935036654420     -0.0000097232011094547     -0.0000081168032859007     -0.0000057134066333231     -0.0000022697422994483     0.0000026402941709487     0.0000096524629372294     0.0000195051088821291     0.0000327977293542343     0.0000503798111804233     0.0000780827989662450     0.0001138799942178952     0.0001501214189931499     0.0001772501382430633     0.0001873221925778547 
    0.0002205844139373698     0.0002088828650287190     0.0001772501382430632     0.0001346491670198492     0.0000919587960434744     0.0000580828749426088     0.0000369293932825385     0.0000220671631492556     0.0000110431040961937     0.0000031831036357795     -0.0000023422870757078     -0.0000062493257693137     -0.0000090184835208469     -0.0000109175604100139     -0.0000121086892664542     -0.0000127360690151138     -0.0000129273040110217     -0.0000127360700606183     -0.0000121086913375355     -0.0000109175634420172     -0.0000090184873782821     -0.0000062493302434843     -0.0000023422919093929     0.0000031830987151348     0.0000110430993536723     0.0000220671588339961     0.0000369293896249186     0.0000580828721386681     0.0000919587942039501     0.0001346491660903380     0.0001772501379649139     0.0002088828650287190     0.0002205844139373698 
    0.0002328747686011735     0.0002205844139373698     0.0001873221925778546     0.0001424139510702007     0.0000972096591174764     0.0000610611959707736     0.0000384259843075817     0.0000230015875428935     0.0000115607514882979     0.0000034013246181808     -0.0000023397137456833     -0.0000064079524380667     -0.0000093035950235258     -0.0000113034728858211     -0.0000125704752643029     -0.0000132455998643704     -0.0000134531738795454     -0.0000132455998643704     -0.0000125704752643029     -0.0000113034728858211     -0.0000093035950235258     -0.0000064079524380667     -0.0000023397137456833     0.0000034013246181808     0.0000115607514882979     0.0000230015875428935     0.0000384259843075818     0.0000610611959707737     0.0000972096591174764     0.0001424139510702007     0.0001873221925778547     0.0002205844139373698     0.0002328747686011735 
    0.0004214957134624434     0.0004018078430846919     0.0003477968213302267     0.0002726247742117799     0.0001926986203286915     0.0001224367447194248     0.0000708109125695933     0.0000404284697211685     0.0000237192619657783     0.0000115497158662940     0.0000029591798677910     -0.0000030550721021251     -0.0000072957621130508     -0.0000102631618443151     -0.0000122229122499646     -0.0000133279752350486     -0.0000136824657384552     -0.0000133279752350486     -0.0000122229122499646     -0.0000102631618443151     -0.0000072957621130508     -0.0000030550721021250     0.0000029591798677910     0.0000115497158662940     0.0000237192619657784     0.0000404284697211685     0.0000708109125695933     0.0001224367447194249     0.0001926986203286916     0.0002726247742117799     0.0003477968213302269     0.0004018078430846919     0.0004214957134624434 
    0.0004018078430846918     0.0003828993639333148     0.0003310659656632697     0.0002590447278135330     0.0001826888735284562     0.0001158775900909272     0.0000671561998889182     0.0000388654531101994     0.0000227807156135070     0.0000110326556761022     0.0000027353523340743     -0.0000030786119589587     -0.0000071792586095147     -0.0000100446715929236     -0.0000119306368937650     -0.0000129894235285956     -0.0000133279752350486     -0.0000129894224754035     -0.0000119306347968792     -0.0000100446684967290     -0.0000071792546209081     -0.0000030786072530139     0.0000027353575316586     0.0000110326611111808     0.0000227807210166615     0.0000388654582001682     0.0000671562043696870     0.0001158775936628224     0.0001826888759596220     0.0002590447290805396     0.0003310659660511133     0.0003828993639333147     0.0004018078430846918 
    0.0003477968213302270     0.0003310659660511131     0.0002853120025442583     0.0002220714677824509     0.0001556336417070077     0.0000983558262319276     0.0000575841792567984     0.0000346828314605235     0.0000202080158503652     0.0000096435740183994     0.0000021751617753358     -0.0000030677038428522     -0.0000067652323815358     -0.0000093349459539940     -0.0000110063588135482     -0.0000119306368937650     -0.0000122229122499647     -0.0000119306347968792     -0.0000110063546490011     -0.0000093349398328950     -0.0000067652245524051     -0.0000030676946986207     0.0000021751717408818     0.0000096435842633166     0.0000202080258149083     0.0000346828405776706     0.0000575841869616340     0.0000983558320095851     0.0001556336452426044     0.0002220714692015031     0.0002853120025442583     0.0003310659656632697     0.0003477968213302270 
    0.0002726247742117800     0.0002590447290805397     0.0002220714692015031     0.0001714624004541430     0.0001191888487823684     0.0000753572676330362     0.0000455576392791942     0.0000287700479965902     0.0000166279897618332     0.0000077946938343915     0.0000015545321913898     -0.0000028258617949125     -0.0000059007366392345     -0.0000080048654015624     -0.0000093349459539939     -0.0000100446715929236     -0.0000102631618443151     -0.0000100446684967290     -0.0000093349398328950     -0.0000080048564780229     -0.0000059007253657577     -0.0000028258488506708     0.0000015545459864538     0.0000077947076173248     0.0000166280026813319     0.0000287700592349859     0.0000455576480899478     0.0000753572734495793     0.0001191888514390893     0.0001714624004541430     0.0002220714677824509     0.0002590447278135330     0.0002726247742117800 
    0.0001926986203286916     0.0001826888759596220     0.0001556336452426043     0.0001191888514390892     0.0000825881449097612     0.0000532933699762102     0.0000347846689606906     0.0000222800364064388     0.0000128059815026044     0.0000059747778691189     0.0000011862153073798     -0.0000021382664363990     -0.0000044163871211952     -0.0000059007366392345     -0.0000067652323815358     -0.0000071792586095147     -0.0000072957621130508     -0.0000071792546209081     -0.0000067652245524050     -0.0000059007253657577     -0.0000044163731339877     -0.0000021382507649034     0.0000011862314838037     0.0000059747933775899     0.0000128059952605232     0.0000222800474549975     0.0000347846765322878     0.0000532933736607370     0.0000825881449097612     0.0001191888487823684     0.0001556336417070077     0.0001826888735284562     0.0001926986203286916 
    0.0001224367447194249     0.0001158775936628224     0.0000983558320095850     0.0000753572734495793     0.0000532933736607370     0.0000369311920597724     0.0000253989790457042     0.0000162193366350933     0.0000093967042406461     0.0000045879816298542     0.0000013228185442984     -0.0000008210197929237     -0.0000021382664363990     -0.0000028258617949126     -0.0000030677038428522     -0.0000030786119589587     -0.0000030550721021250     -0.0000030786072530140     -0.0000030676946986207     -0.0000028258488506708     -0.0000021382507649034     -0.0000008210028028249     0.0000013228353384057     0.0000045879968245767     0.0000093967166502810     0.0000162193453277103     0.0000253989834256206     0.0000369311920597724     0.0000532933699762102     0.0000753572676330362     0.0000983558262319276     0.0001158775900909272     0.0001224367447194249 
    0.0000708109125695933     0.0000671562043696870     0.0000575841869616339     0.0000455576480899478     0.0000347846765322877     0.0000253989834256206     0.0000174170947909256     0.0000112315253414744     0.0000068123561240155     0.0000038957423874471     0.0000021575416659344     0.0000013228185442984     0.0000011862153073798     0.0000015545321913898     0.0000021751617753358     0.0000027353523340743     0.0000029591798677910     0.0000027353575316587     0.0000021751717408818     0.0000015545459864538     0.0000011862314838037     0.0000013228353384057     0.0000021575573171555     0.0000038957554004101     0.0000068123653753382     0.0000112315300998145     0.0000174170947909255     0.0000253989790457042     0.0000347846689606906     0.0000455576392791942     0.0000575841792567983     0.0000671561998889182     0.0000708109125695933 
    0.0000404284697211685     0.0000388654582001682     0.0000346828405776706     0.0000287700592349859     0.0000222800474549975     0.0000162193453277103     0.0000112315300998145     0.0000075753821394718     0.0000052342846636415     0.0000040625814496288     0.0000038957423874471     0.0000045879816298542     0.0000059747778691189     0.0000077946938343914     0.0000096435740183993     0.0000110326556761022     0.0000115497158662940     0.0000110326611111808     0.0000096435842633166     0.0000077947076173248     0.0000059747933775899     0.0000045879968245767     0.0000038957554004101     0.0000040625908589897     0.0000052342895680140     0.0000075753821394718     0.0000112315253414744     0.0000162193366350933     0.0000222800364064388     0.0000287700479965901     0.0000346828314605235     0.0000388654531101994     0.0000404284697211685 
    0.0000237192619657783     0.0000227807210166615     0.0000202080258149083     0.0000166280026813319     0.0000128059952605232     0.0000093967166502809     0.0000068123653753383     0.0000052342895680140     0.0000047074223023829     0.0000052342846636415     0.0000068123561240155     0.0000093967042406461     0.0000128059815026044     0.0000166279897618331     0.0000202080158503652     0.0000227807156135070     0.0000237192619657784     0.0000227807210166615     0.0000202080258149083     0.0000166280026813319     0.0000128059952605232     0.0000093967166502809     0.0000068123653753383     0.0000052342895680140     0.0000047074223023829     0.0000052342846636415     0.0000068123561240155     0.0000093967042406461     0.0000128059815026044     0.0000166279897618331     0.0000202080158503652     0.0000227807156135070     0.0000237192619657783 
    0.0000115497158662941     0.0000110326611111808     0.0000096435842633166     0.0000077947076173248     0.0000059747933775899     0.0000045879968245767     0.0000038957554004101     0.0000040625908589897     0.0000052342895680140     0.0000075753821394718     0.0000112315253414744     0.0000162193366350933     0.0000222800364064388     0.0000287700479965901     0.0000346828314605235     0.0000388654531101994     0.0000404284697211685     0.0000388654582001682     0.0000346828405776706     0.0000287700592349859     0.0000222800474549975     0.0000162193453277103     0.0000112315300998145     0.0000075753821394718     0.0000052342846636415     0.0000040625814496288     0.0000038957423874471     0.0000045879816298542     0.0000059747778691189     0.0000077946938343914     0.0000096435740183993     0.0000110326556761022     0.0000115497158662941 
    0.0000029591798677910     0.0000027353575316587     0.0000021751717408818     0.0000015545459864538     0.0000011862314838037     0.0000013228353384057     0.0000021575573171555     0.0000038957554004101     0.0000068123653753382     0.0000112315300998145     0.0000174170947909256     0.0000253989790457042     0.0000347846689606906     0.0000455576392791941     0.0000575841792567983     0.0000671561998889182     0.0000708109125695933     0.0000671562043696870     0.0000575841869616340     0.0000455576480899478     0.0000347846765322878     0.0000253989834256206     0.0000174170947909256     0.0000112315253414744     0.0000068123561240155     0.0000038957423874471     0.0000021575416659344     0.0000013228185442984     0.0000011862153073798     0.0000015545321913898     0.0000021751617753358     0.0000027353523340743     0.0000029591798677910 
    -0.0000030550721021250     -0.0000030786072530140     -0.0000030676946986207     -0.0000028258488506708     -0.0000021382507649034     -0.0000008210028028249     0.0000013228353384057     0.0000045879968245767     0.0000093967166502810     0.0000162193453277103     0.0000253989834256206     0.0000369311920597724     0.0000532933699762102     0.0000753572676330362     0.0000983558262319276     0.0001158775900909272     0.0001224367447194249     0.0001158775936628224     0.0000983558320095850     0.0000753572734495793     0.0000532933736607370     0.0000369311920597724     0.0000253989790457042     0.0000162193366350933     0.0000093967042406461     0.0000045879816298542     0.0000013228185442983     -0.0000008210197929237     -0.0000021382664363990     -0.0000028258617949125     -0.0000030677038428522     -0.0000030786119589587     -0.0000030550721021250 
    -0.0000072957621130507     -0.0000071792546209081     -0.0000067652245524050     -0.0000059007253657577     -0.0000044163731339877     -0.0000021382507649034     0.0000011862314838037     0.0000059747933775899     0.0000128059952605232     0.0000222800474549976     0.0000347846765322877     0.0000532933736607370     0.0000825881449097612     0.0001191888487823684     0.0001556336417070076     0.0001826888735284562     0.0001926986203286916     0.0001826888759596220     0.0001556336452426043     0.0001191888514390893     0.0000825881449097611     0.0000532933699762102     0.0000347846689606906     0.0000222800364064388     0.0000128059815026044     0.0000059747778691189     0.0000011862153073798     -0.0000021382664363990     -0.0000044163871211952     -0.0000059007366392345     -0.0000067652323815358     -0.0000071792586095147     -0.0000072957621130507 
    -0.0000102631618443151     -0.0000100446684967290     -0.0000093349398328950     -0.0000080048564780229     -0.0000059007253657577     -0.0000028258488506708     0.0000015545459864538     0.0000077947076173248     0.0000166280026813319     0.0000287700592349859     0.0000455576480899478     0.0000753572734495793     0.0001191888514390893     0.0001714624004541430     0.0002220714677824509     0.0002590447278135330     0.0002726247742117800     0.0002590447290805397     0.0002220714692015030     0.0001714624004541430     0.0001191888487823684     0.0000753572676330361     0.0000455576392791941     0.0000287700479965901     0.0000166279897618331     0.0000077946938343914     0.0000015545321913898     -0.0000028258617949126     -0.0000059007366392345     -0.0000080048654015625     -0.0000093349459539939     -0.0000100446715929236     -0.0000102631618443151 
    -0.0000122229122499647     -0.0000119306347968792     -0.0000110063546490012     -0.0000093349398328950     -0.0000067652245524050     -0.0000030676946986207     0.0000021751717408818     0.0000096435842633166     0.0000202080258149084     0.0000346828405776707     0.0000575841869616340     0.0000983558320095851     0.0001556336452426045     0.0002220714692015032     0.0002853120025442583     0.0003310659656632697     0.0003477968213302270     0.0003310659660511131     0.0002853120025442583     0.0002220714677824509     0.0001556336417070077     0.0000983558262319275     0.0000575841792567983     0.0000346828314605235     0.0000202080158503652     0.0000096435740183993     0.0000021751617753357     -0.0000030677038428523     -0.0000067652323815359     -0.0000093349459539940     -0.0000110063588135483     -0.0000119306368937651     -0.0000122229122499647 
    -0.0000133279752350486     -0.0000129894224754035     -0.0000119306347968792     -0.0000100446684967290     -0.0000071792546209081     -0.0000030786072530140     0.0000027353575316587     0.0000110326611111808     0.0000227807210166615     0.0000388654582001682     0.0000671562043696871     0.0001158775936628224     0.0001826888759596221     0.0002590447290805397     0.0003310659660511132     0.0003828993639333148     0.0004018078430846918     0.0003828993639333148     0.0003310659656632697     0.0002590447278135330     0.0001826888735284562     0.0001158775900909272     0.0000671561998889182     0.0000388654531101994     0.0000227807156135070     0.0000110326556761021     0.0000027353523340742     -0.0000030786119589588     -0.0000071792586095147     -0.0000100446715929236     -0.0000119306368937651     -0.0000129894235285957     -0.0000133279752350486 
    -0.0000136824657384552     -0.0000133279752350486     -0.0000122229122499647     -0.0000102631618443151     -0.0000072957621130508     -0.0000030550721021250     0.0000029591798677910     0.0000115497158662941     0.0000237192619657784     0.0000404284697211686     0.0000708109125695933     0.0001224367447194249     0.0001926986203286916     0.0002726247742117799     0.0003477968213302269     0.0004018078430846918     0.0004214957134624434     0.0004018078430846918     0.0003477968213302269     0.0002726247742117799     0.0001926986203286915     0.0001224367447194248     0.0000708109125695933     0.0000404284697211685     0.0000237192619657783     0.0000115497158662940     0.0000029591798677910     -0.0000030550721021250     -0.0000072957621130508     -0.0000102631618443151     -0.0000122229122499647     -0.0000133279752350486     -0.0000136824657384552 
    -0.0000133279752350486     -0.0000129894235285957     -0.0000119306368937650     -0.0000100446715929236     -0.0000071792586095147     -0.0000030786119589587     0.0000027353523340743     0.0000110326556761022     0.0000227807156135070     0.0000388654531101994     0.0000671561998889182     0.0001158775900909272     0.0001826888735284563     0.0002590447278135330     0.0003310659656632697     0.0003828993639333148     0.0004018078430846918     0.0003828993639333147     0.0003310659660511131     0.0002590447290805396     0.0001826888759596220     0.0001158775936628223     0.0000671562043696870     0.0000388654582001681     0.0000227807210166615     0.0000110326611111807     0.0000027353575316586     -0.0000030786072530139     -0.0000071792546209081     -0.0000100446684967290     -0.0000119306347968792     -0.0000129894224754035     -0.0000133279752350486 
    -0.0000122229122499647     -0.0000119306368937650     -0.0000110063588135482     -0.0000093349459539939     -0.0000067652323815358     -0.0000030677038428522     0.0000021751617753358     0.0000096435740183994     0.0000202080158503652     0.0000346828314605235     0.0000575841792567984     0.0000983558262319276     0.0001556336417070077     0.0002220714677824510     0.0002853120025442584     0.0003310659660511131     0.0003477968213302269     0.0003310659656632697     0.0002853120025442583     0.0002220714692015031     0.0001556336452426043     0.0000983558320095850     0.0000575841869616339     0.0000346828405776706     0.0000202080258149083     0.0000096435842633166     0.0000021751717408818     -0.0000030676946986207     -0.0000067652245524050     -0.0000093349398328950     -0.0000110063546490011     -0.0000119306347968792     -0.0000122229122499647 
    -0.0000102631618443151     -0.0000100446715929236     -0.0000093349459539939     -0.0000080048654015625     -0.0000059007366392345     -0.0000028258617949125     0.0000015545321913898     0.0000077946938343914     0.0000166279897618331     0.0000287700479965901     0.0000455576392791942     0.0000753572676330362     0.0001191888487823684     0.0001714624004541430     0.0002220714692015031     0.0002590447290805397     0.0002726247742117800     0.0002590447278135330     0.0002220714677824509     0.0001714624004541429     0.0001191888514390892     0.0000753572734495793     0.0000455576480899477     0.0000287700592349858     0.0000166280026813318     0.0000077947076173248     0.0000015545459864538     -0.0000028258488506708     -0.0000059007253657577     -0.0000080048564780229     -0.0000093349398328950     -0.0000100446684967290     -0.0000102631618443151 
    -0.0000072957621130508     -0.0000071792586095147     -0.0000067652323815358     -0.0000059007366392345     -0.0000044163871211952     -0.0000021382664363990     0.0000011862153073798     0.0000059747778691190     0.0000128059815026044     0.0000222800364064388     0.0000347846689606906     0.0000532933699762102     0.0000825881449097612     0.0001191888514390893     0.0001556336452426044     0.0001826888759596220     0.0001926986203286915     0.0001826888735284562     0.0001556336417070076     0.0001191888487823683     0.0000825881449097611     0.0000532933736607370     0.0000347846765322877     0.0000222800474549975     0.0000128059952605232     0.0000059747933775899     0.0000011862314838037     -0.0000021382507649034     -0.0000044163731339877     -0.0000059007253657577     -0.0000067652245524050     -0.0000071792546209081     -0.0000072957621130508 
    -0.0000030550721021251     -0.0000030786119589587     -0.0000030677038428522     -0.0000028258617949125     -0.0000021382664363990     -0.0000008210197929237     0.0000013228185442984     0.0000045879816298542     0.0000093967042406461     0.0000162193366350933     0.0000253989790457043     0.0000369311920597724     0.0000532933736607370     0.0000753572734495793     0.0000983558320095850     0.0001158775936628224     0.0001224367447194249     0.0001158775900909272     0.0000983558262319276     0.0000753572676330361     0.0000532933699762102     0.0000369311920597724     0.0000253989834256206     0.0000162193453277103     0.0000093967166502809     0.0000045879968245766     0.0000013228353384057     -0.0000008210028028249     -0.0000021382507649034     -0.0000028258488506708     -0.0000030676946986207     -0.0000030786072530140     -0.0000030550721021251 
    0.0000029591798677910     0.0000027353523340743     0.0000021751617753358     0.0000015545321913898     0.0000011862153073798     0.0000013228185442984     0.0000021575416659344     0.0000038957423874471     0.0000068123561240155     0.0000112315253414744     0.0000174170947909256     0.0000253989834256206     0.0000347846765322878     0.0000455576480899478     0.0000575841869616340     0.0000671562043696870     0.0000708109125695933     0.0000671561998889182     0.0000575841792567983     0.0000455576392791941     0.0000347846689606906     0.0000253989790457042     0.0000174170947909256     0.0000112315300998145     0.0000068123653753382     0.0000038957554004101     0.0000021575573171555     0.0000013228353384057     0.0000011862314838037     0.0000015545459864538     0.0000021751717408818     0.0000027353575316587     0.0000029591798677910 
    0.0000115497158662940     0.0000110326556761022     0.0000096435740183993     0.0000077946938343914     0.0000059747778691189     0.0000045879816298542     0.0000038957423874471     0.0000040625814496288     0.0000052342846636415     0.0000075753821394718     0.0000112315300998145     0.0000162193453277103     0.0000222800474549976     0.0000287700592349859     0.0000346828405776706     0.0000388654582001682     0.0000404284697211685     0.0000388654531101994     0.0000346828314605235     0.0000287700479965901     0.0000222800364064388     0.0000162193366350933     0.0000112315253414744     0.0000075753821394718     0.0000052342895680140     0.0000040625908589897     0.0000038957554004101     0.0000045879968245767     0.0000059747933775899     0.0000077947076173248     0.0000096435842633166     0.0000110326611111808     0.0000115497158662940 
    0.0000237192619657784     0.0000227807156135070     0.0000202080158503652     0.0000166279897618331     0.0000128059815026044     0.0000093967042406461     0.0000068123561240155     0.0000052342846636415     0.0000047074223023829     0.0000052342895680140     0.0000068123653753382     0.0000093967166502809     0.0000128059952605232     0.0000166280026813319     0.0000202080258149083     0.0000227807210166615     0.0000237192619657783     0.0000227807156135070     0.0000202080158503652     0.0000166279897618331     0.0000128059815026044     0.0000093967042406461     0.0000068123561240155     0.0000052342846636415     0.0000047074223023829     0.0000052342895680140     0.0000068123653753382     0.0000093967166502809     0.0000128059952605232     0.0000166280026813319     0.0000202080258149083     0.0000227807210166615     0.0000237192619657784 
    0.0000404284697211685     0.0000388654531101994     0.0000346828314605235     0.0000287700479965901     0.0000222800364064388     0.0000162193366350933     0.0000112315253414744     0.0000075753821394718     0.0000052342895680140     0.0000040625908589897     0.0000038957554004101     0.0000045879968245767     0.0000059747933775899     0.0000077947076173248     0.0000096435842633165     0.0000110326611111807     0.0000115497158662940     0.0000110326556761022     0.0000096435740183993     0.0000077946938343914     0.0000059747778691189     0.0000045879816298542     0.0000038957423874471     0.0000040625814496288     0.0000052342846636415     0.0000075753821394718     0.0000112315300998145     0.0000162193453277103     0.0000222800474549975     0.0000287700592349858     0.0000346828405776706     0.0000388654582001682     0.0000404284697211685 
    0.0000708109125695933     0.0000671561998889182     0.0000575841792567983     0.0000455576392791942     0.0000347846689606906     0.0000253989790457042     0.0000174170947909256     0.0000112315300998145     0.0000068123653753382     0.0000038957554004101     0.0000021575573171555     0.0000013228353384057     0.0000011862314838037     0.0000015545459864538     0.0000021751717408818     0.0000027353575316587     0.0000029591798677910     0.0000027353523340742     0.0000021751617753358     0.0000015545321913897     0.0000011862153073798     0.0000013228185442984     0.0000021575416659344     0.0000038957423874471     0.0000068123561240155     0.0000112315253414744     0.0000174170947909255     0.0000253989834256206     0.0000347846765322877     0.0000455576480899478     0.0000575841869616340     0.0000671562043696870     0.0000708109125695933 
    0.0001224367447194249     0.0001158775900909272     0.0000983558262319276     0.0000753572676330362     0.0000532933699762102     0.0000369311920597724     0.0000253989834256206     0.0000162193453277103     0.0000093967166502809     0.0000045879968245767     0.0000013228353384057     -0.0000008210028028249     -0.0000021382507649034     -0.0000028258488506708     -0.0000030676946986207     -0.0000030786072530140     -0.0000030550721021251     -0.0000030786119589588     -0.0000030677038428523     -0.0000028258617949125     -0.0000021382664363990     -0.0000008210197929237     0.0000013228185442984     0.0000045879816298542     0.0000093967042406462     0.0000162193366350933     0.0000253989790457042     0.0000369311920597724     0.0000532933736607370     0.0000753572734495793     0.0000983558320095850     0.0001158775936628224     0.0001224367447194249 
    0.0001926986203286916     0.0001826888735284562     0.0001556336417070077     0.0001191888487823684     0.0000825881449097612     0.0000532933736607370     0.0000347846765322877     0.0000222800474549975     0.0000128059952605232     0.0000059747933775899     0.0000011862314838037     -0.0000021382507649034     -0.0000044163731339877     -0.0000059007253657577     -0.0000067652245524051     -0.0000071792546209081     -0.0000072957621130508     -0.0000071792586095147     -0.0000067652323815358     -0.0000059007366392345     -0.0000044163871211952     -0.0000021382664363990     0.0000011862153073798     0.0000059747778691189     0.0000128059815026044     0.0000222800364064388     0.0000347846689606906     0.0000532933699762102     0.0000825881449097612     0.0001191888514390893     0.0001556336452426043     0.0001826888759596220     0.0001926986203286916 
    0.0002726247742117800     0.0002590447278135330     0.0002220714677824509     0.0001714624004541430     0.0001191888514390893     0.0000753572734495793     0.0000455576480899478     0.0000287700592349859     0.0000166280026813319     0.0000077947076173248     0.0000015545459864539     -0.0000028258488506708     -0.0000059007253657577     -0.0000080048564780229     -0.0000093349398328950     -0.0000100446684967290     -0.0000102631618443151     -0.0000100446715929236     -0.0000093349459539939     -0.0000080048654015624     -0.0000059007366392345     -0.0000028258617949125     0.0000015545321913897     0.0000077946938343914     0.0000166279897618331     0.0000287700479965901     0.0000455576392791942     0.0000753572676330362     0.0001191888487823684     0.0001714624004541430     0.0002220714692015031     0.0002590447290805397     0.0002726247742117800 
    0.0003477968213302270     0.0003310659656632697     0.0002853120025442583     0.0002220714692015031     0.0001556336452426044     0.0000983558320095850     0.0000575841869616340     0.0000346828405776706     0.0000202080258149083     0.0000096435842633166     0.0000021751717408818     -0.0000030676946986207     -0.0000067652245524050     -0.0000093349398328951     -0.0000110063546490012     -0.0000119306347968792     -0.0000122229122499647     -0.0000119306368937651     -0.0000110063588135483     -0.0000093349459539940     -0.0000067652323815359     -0.0000030677038428523     0.0000021751617753357     0.0000096435740183993     0.0000202080158503652     0.0000346828314605235     0.0000575841792567984     0.0000983558262319276     0.0001556336417070077     0.0002220714677824510     0.0002853120025442583     0.0003310659660511131     0.0003477968213302270 
    0.0004018078430846919     0.0003828993639333147     0.0003310659660511132     0.0002590447290805396     0.0001826888759596220     0.0001158775936628224     0.0000671562043696870     0.0000388654582001681     0.0000227807210166615     0.0000110326611111808     0.0000027353575316586     -0.0000030786072530140     -0.0000071792546209081     -0.0000100446684967291     -0.0000119306347968792     -0.0000129894224754035     -0.0000133279752350486     -0.0000129894235285957     -0.0000119306368937650     -0.0000100446715929236     -0.0000071792586095147     -0.0000030786119589588     0.0000027353523340742     0.0000110326556761022     0.0000227807156135070     0.0000388654531101994     0.0000671561998889182     0.0001158775900909272     0.0001826888735284563     0.0002590447278135330     0.0003310659656632698     0.0003828993639333148     0.0004018078430846919 
    0.0004214957134624434     0.0004018078430846919     0.0003477968213302267     0.0002726247742117799     0.0001926986203286915     0.0001224367447194248     0.0000708109125695933     0.0000404284697211685     0.0000237192619657783     0.0000115497158662940     0.0000029591798677910     -0.0000030550721021251     -0.0000072957621130508     -0.0000102631618443151     -0.0000122229122499646     -0.0000133279752350486     -0.0000136824657384552     -0.0000133279752350486     -0.0000122229122499646     -0.0000102631618443151     -0.0000072957621130508     -0.0000030550721021250     0.0000029591798677910     0.0000115497158662940     0.0000237192619657784     0.0000404284697211685     0.0000708109125695933     0.0001224367447194249     0.0001926986203286916     0.0002726247742117799     0.0003477968213302269     0.0004018078430846919     0.0004214957134624434 
    0.0006492422958343358     0.0006225052832051358     0.0005485845940111790     0.0004438213659621101     0.0003286007848804071     0.0002212566390259016     0.0001344073139231623     0.0000740464351077858     0.0000404165209604520     0.0000229800723864817     0.0000103794180725084     0.0000016195530751018     -0.0000044084279393665     -0.0000085597633777981     -0.0000113253554034814     -0.0000129273040110217     -0.0000134531738795454     -0.0000129273040110217     -0.0000113253554034814     -0.0000085597633777980     -0.0000044084279393664     0.0000016195530751018     0.0000103794180725085     0.0000229800723864818     0.0000404165209604521     0.0000740464351077859     0.0001344073139231624     0.0002212566390259016     0.0003286007848804072     0.0004438213659621101     0.0005485845940111791     0.0006225052832051358     0.0006492422958343358 
    0.0006225052832051356     0.0005966652060172046     0.0005252607095240894     0.0004241799352578478     0.0003132383789177809     0.0002102303288153879     0.0001273317040198730     0.0000701994651934130     0.0000388553857504209     0.0000220477123162979     0.0000098678485043978     0.0000013881119007532     -0.0000044602822847396     -0.0000084944656691640     -0.0000111817563320710     -0.0000127360700606183     -0.0000132455998643704     -0.0000127360690151139     -0.0000111817542481203     -0.0000084944625765551     -0.0000044602782539037     0.0000013881167516014     0.0000098678540098815     0.0000220477182609566     0.0000388553918634163     0.0000701994711469374     0.0001273317094269370     0.0002102303332461474     0.0003132383820019197     0.0004241799368920033     0.0005252607100298334     0.0005966652060172046     0.0006225052832051356 
    0.0005485845940111791     0.0005252607100298336     0.0004609135515119550     0.0003701553941195772     0.0002711924042967876     0.0001802868661555631     0.0001083526527648383     0.0000600913282534518     0.0000346776540932467     0.0000194911097133938     0.0000084898039312747     0.0000007995170583733     -0.0000045375497542616     -0.0000082340423885849     -0.0000106935036654420     -0.0000121086913375355     -0.0000125704752643029     -0.0000121086892664542     -0.0000106934995471510     -0.0000082340363058414     -0.0000045375418870659     0.0000007995264217873     0.0000084898144053743     0.0000194911208205648     0.0000346776652592644     0.0000600913388100553     0.0001083526619671421     0.0001802868732512468     0.0002711924087412225     0.0003701553959352961     0.0004609135515119550     0.0005252607095240895     0.0005485845940111791 
    0.0004438213659621101     0.0004241799368920033     0.0003701553959352961     0.0002944722004490439     0.0002129394299836386     0.0001395153111502746     0.0000832063635446074     0.0000472951445091059     0.0000287709795125150     0.0000159314895469647     0.0000066458780929703     0.0000001193197993829     -0.0000044477032259672     -0.0000076225180845093     -0.0000097232011094547     -0.0000109175634420172     -0.0000113034728858211     -0.0000109175604100139     -0.0000097231951065388     -0.0000076225092906574     -0.0000044476919988781     0.0000001193329188536     0.0000066458924209053     0.0000159315042905397     0.0000287709937789962     0.0000472951573210008     0.0000832063739002248     0.0001395153181809285     0.0002129394332735134     0.0002944722004490439     0.0003701553941195772     0.0004241799352578477     0.0004438213659621101 
    0.0003286007848804071     0.0003132383820019197     0.0002711924087412225     0.0002129394332735133     0.0001514050567995277     0.0000977451114734132     0.0000586520914429393     0.0000357586736567547     0.0000222863295713260     0.0000121291118762634     0.0000048163214093625     -0.0000003437423198552     -0.0000039731719347729     -0.0000064856722764285     -0.0000081168032859007     -0.0000090184873782821     -0.0000093035950235258     -0.0000090184835208469     -0.0000081167956992689     -0.0000064856612954655     -0.0000039731581712294     -0.0000003437266442173     0.0000048163379610221     0.0000121291281884755     0.0000222863444862628     0.0000357586860073900     0.0000586521001617410     0.0000977451158353800     0.0001514050567995278     0.0002129394299836386     0.0002711924042967877     0.0003132383789177809     0.0003286007848804071 
    0.0002212566390259016     0.0002102303332461474     0.0001802868732512467     0.0001395153181809285     0.0000977451158353799     0.0000631044908020818     0.0000398355020848028     0.0000263729829637073     0.0000162289473774256     0.0000087362259740291     0.0000034044927886370     -0.0000003324774759209     -0.0000029257449812812     -0.0000046588131264057     -0.0000057134066333231     -0.0000062493302434843     -0.0000064079524380667     -0.0000062493257693137     -0.0000057133979146298     -0.0000046588007101406     -0.0000029257297919150     -0.0000003324607483532     0.0000034045096761073     0.0000087362416505933     0.0000162289605499407     0.0000263729924643464     0.0000398355070104657     0.0000631044908020819     0.0000977451114734132     0.0001395153111502746     0.0001802868661555631     0.0002102303288153879     0.0002212566390259016 
    0.0001344073139231624     0.0001273317094269369     0.0001083526619671420     0.0000832063739002248     0.0000586521001617410     0.0000398355070104657     0.0000277456469830466     0.0000183463018468179     0.0000112421139246142     0.0000061642874461669     0.0000026749024353442     0.0000003502697674288     -0.0000011170629226005     -0.0000019303962665901     -0.0000022697422994482     -0.0000023422919093928     -0.0000023397137456833     -0.0000023422870757078     -0.0000022697329939507     -0.0000019303832896919     -0.0000011170475322016     0.0000003502859985672     0.0000026749178699559     0.0000061643005911844     0.0000112421235221061     0.0000183463069215187     0.0000277456469830467     0.0000398355020848028     0.0000586520914429394     0.0000832063635446075     0.0001083526527648383     0.0001273317040198730     0.0001344073139231624 
    0.0000740464351077858     0.0000701994711469373     0.0000600913388100553     0.0000472951573210008     0.0000357586860073899     0.0000263729924643463     0.0000183463069215187     0.0000120863738868498     0.0000075851161191503     0.0000045938109097452     0.0000027926809852669     0.0000019043169191615     0.0000017206330761856     0.0000020491695144428     0.0000026402941709487     0.0000031830987151348     0.0000034013246181808     0.0000031831036357795     0.0000026403034972631     0.0000020491821773410     0.0000017206475092358     0.0000019043312960651     0.0000027926935465240     0.0000045938202034836     0.0000075851210861401     0.0000120863738868499     0.0000183463018468180     0.0000263729829637073     0.0000357586736567548     0.0000472951445091059     0.0000600913282534519     0.0000701994651934130     0.0000740464351077858 
    0.0000404165209604520     0.0000388553918634162     0.0000346776652592643     0.0000287709937789961     0.0000222863444862627     0.0000162289605499406     0.0000112421235221060     0.0000075851210861401     0.0000052422133308964     0.0000040686214774974     0.0000039004958269291     0.0000045924549168267     0.0000059800647059834     0.0000078016354460476     0.0000096524629372294     0.0000110430993536723     0.0000115607514882979     0.0000110431040961937     0.0000096524717460145     0.0000078016469971832     0.0000059800771920459     0.0000045924663842872     0.0000039005045540575     0.0000040686262099550     0.0000052422133308964     0.0000075851161191503     0.0000112421139246143     0.0000162289473774256     0.0000222863295713260     0.0000287709795125150     0.0000346776540932467     0.0000388553857504209     0.0000404165209604520 
    0.0000229800723864818     0.0000220477182609566     0.0000194911208205647     0.0000159315042905397     0.0000121291281884755     0.0000087362416505933     0.0000061643005911843     0.0000045938202034836     0.0000040686262099549     0.0000045910973463168     0.0000061602099506836     0.0000087332053085304     0.0000121299943719927     0.0000159385732864885     0.0000195051088821291     0.0000220671588339961     0.0000230015875428935     0.0000220671631492557     0.0000195051166818037     0.0000159385830354755     0.0000121300041261412     0.0000087332131392812     0.0000061602143326444     0.0000045910973463168     0.0000040686214774975     0.0000045938109097453     0.0000061642874461669     0.0000087362259740291     0.0000121291118762635     0.0000159314895469647     0.0000194911097133939     0.0000220477123162980     0.0000229800723864818 
    0.0000103794180725085     0.0000098678540098816     0.0000084898144053743     0.0000066458924209053     0.0000048163379610221     0.0000034045096761073     0.0000026749178699558     0.0000027926935465240     0.0000039005045540575     0.0000061602143326444     0.0000097197031034226     0.0000146031830319624     0.0000205615018586161     0.0000269594738689375     0.0000327977293542343     0.0000369293896249185     0.0000384259843075817     0.0000369293932825385     0.0000327977357140892     0.0000269594812655262     0.0000205615083485592     0.0000146031868738534     0.0000097197031034226     0.0000061602099506836     0.0000039004958269292     0.0000027926809852669     0.0000026749024353443     0.0000034044927886370     0.0000048163214093625     0.0000066458780929704     0.0000084898039312748     0.0000098678485043978     0.0000103794180725085 
    0.0000016195530751018     0.0000013881167516014     0.0000007995264217873     0.0000001193329188536     -0.0000003437266442173     -0.0000003324607483532     0.0000003502859985672     0.0000019043312960651     0.0000045924663842872     0.0000087332131392812     0.0000146031868738534     0.0000222630985795042     0.0000313555835397903     0.0000409643587874568     0.0000503798111804232     0.0000580828721386681     0.0000610611959707736     0.0000580828749426088     0.0000503798157752505     0.0000409643635058101     0.0000313555866023875     0.0000222630985795042     0.0000146031830319623     0.0000087332053085304     0.0000045924549168267     0.0000019043169191615     0.0000003502697674288     -0.0000003324774759209     -0.0000003437423198552     0.0000001193197993829     0.0000007995170583733     0.0000013881119007532     0.0000016195530751018 
    -0.0000044084279393665     -0.0000044602782539037     -0.0000045375418870659     -0.0000044476919988781     -0.0000039731581712294     -0.0000029257297919150     -0.0000011170475322017     0.0000017206475092358     0.0000059800771920459     0.0000121300041261411     0.0000205615083485592     0.0000313555866023875     0.0000440807571910452     0.0000603190812517428     0.0000780827989662450     0.0000919587942039501     0.0000972096591174765     0.0000919587960434744     0.0000780828016794906     0.0000603190833358226     0.0000440807571910452     0.0000313555835397903     0.0000205615018586162     0.0000121299943719927     0.0000059800647059834     0.0000017206330761856     -0.0000011170629226005     -0.0000029257449812812     -0.0000039731719347729     -0.0000044477032259673     -0.0000045375497542616     -0.0000044602822847395     -0.0000044084279393665 
    -0.0000085597633777981     -0.0000084944625765551     -0.0000082340363058413     -0.0000076225092906574     -0.0000064856612954655     -0.0000046588007101406     -0.0000019303832896919     0.0000020491821773410     0.0000078016469971832     0.0000159385830354755     0.0000269594812655262     0.0000409643635058101     0.0000603190833358226     0.0000865606944724557     0.0001138799942178952     0.0001346491660903379     0.0001424139510702007     0.0001346491670198492     0.0001138799952740300     0.0000865606944724557     0.0000603190812517428     0.0000409643587874568     0.0000269594738689375     0.0000159385732864885     0.0000078016354460477     0.0000020491695144428     -0.0000019303962665901     -0.0000046588131264056     -0.0000064856722764285     -0.0000076225180845093     -0.0000082340423885848     -0.0000084944656691639     -0.0000085597633777981 
    -0.0000113253554034814     -0.0000111817542481203     -0.0000106934995471509     -0.0000097231951065389     -0.0000081167956992689     -0.0000057133979146298     -0.0000022697329939507     0.0000026403034972631     0.0000096524717460145     0.0000195051166818037     0.0000327977357140892     0.0000503798157752505     0.0000780828016794906     0.0001138799952740300     0.0001501214189931498     0.0001772501379649139     0.0001873221925778548     0.0001772501382430633     0.0001501214189931499     0.0001138799942178952     0.0000780827989662450     0.0000503798111804233     0.0000327977293542343     0.0000195051088821292     0.0000096524629372294     0.0000026402941709487     -0.0000022697422994482     -0.0000057134066333231     -0.0000081168032859007     -0.0000097232011094547     -0.0000106935036654420     -0.0000111817563320710     -0.0000113253554034814 
    -0.0000129273040110217     -0.0000127360690151138     -0.0000121086892664541     -0.0000109175604100139     -0.0000090184835208468     -0.0000062493257693137     -0.0000023422870757078     0.0000031831036357796     0.0000110431040961937     0.0000220671631492557     0.0000369293932825385     0.0000580828749426088     0.0000919587960434744     0.0001346491670198492     0.0001772501382430633     0.0002088828650287190     0.0002205844139373698     0.0002088828650287190     0.0001772501379649138     0.0001346491660903379     0.0000919587942039501     0.0000580828721386681     0.0000369293896249185     0.0000220671588339961     0.0000110430993536723     0.0000031830987151348     -0.0000023422919093928     -0.0000062493302434843     -0.0000090184873782820     -0.0000109175634420172     -0.0000121086913375355     -0.0000127360700606183     -0.0000129273040110217 
    -0.0000134531738795454     -0.0000132455998643704     -0.0000125704752643029     -0.0000113034728858211     -0.0000093035950235258     -0.0000064079524380667     -0.0000023397137456833     0.0000034013246181808     0.0000115607514882979     0.0000230015875428935     0.0000384259843075817     0.0000610611959707737     0.0000972096591174764     0.0001424139510702007     0.0001873221925778547     0.0002205844139373698     0.0002328747686011735     0.0002205844139373698     0.0001873221925778547     0.0001424139510702007     0.0000972096591174764     0.0000610611959707736     0.0000384259843075817     0.0000230015875428935     0.0000115607514882979     0.0000034013246181808     -0.0000023397137456833     -0.0000064079524380667     -0.0000093035950235258     -0.0000113034728858211     -0.0000125704752643029     -0.0000132455998643703     -0.0000134531738795454 
    -0.0000129273040110217     -0.0000127360700606183     -0.0000121086913375355     -0.0000109175634420172     -0.0000090184873782821     -0.0000062493302434843     -0.0000023422919093929     0.0000031830987151348     0.0000110430993536723     0.0000220671588339961     0.0000369293896249186     0.0000580828721386681     0.0000919587942039501     0.0001346491660903380     0.0001772501379649139     0.0002088828650287190     0.0002205844139373698     0.0002088828650287190     0.0001772501382430633     0.0001346491670198492     0.0000919587960434744     0.0000580828749426088     0.0000369293932825385     0.0000220671631492557     0.0000110431040961937     0.0000031831036357795     -0.0000023422870757078     -0.0000062493257693137     -0.0000090184835208469     -0.0000109175604100139     -0.0000121086892664541     -0.0000127360690151138     -0.0000129273040110217 
    -0.0000113253554034814     -0.0000111817563320710     -0.0000106935036654420     -0.0000097232011094547     -0.0000081168032859007     -0.0000057134066333231     -0.0000022697422994482     0.0000026402941709487     0.0000096524629372294     0.0000195051088821291     0.0000327977293542344     0.0000503798111804233     0.0000780827989662450     0.0001138799942178952     0.0001501214189931499     0.0001772501382430633     0.0001873221925778548     0.0001772501379649139     0.0001501214189931498     0.0001138799952740300     0.0000780828016794906     0.0000503798157752505     0.0000327977357140893     0.0000195051166818037     0.0000096524717460145     0.0000026403034972631     -0.0000022697329939508     -0.0000057133979146298     -0.0000081167956992689     -0.0000097231951065389     -0.0000106934995471509     -0.0000111817542481202     -0.0000113253554034814 
    -0.0000085597633777981     -0.0000084944656691639     -0.0000082340423885848     -0.0000076225180845093     -0.0000064856722764285     -0.0000046588131264056     -0.0000019303962665901     0.0000020491695144428     0.0000078016354460477     0.0000159385732864885     0.0000269594738689375     0.0000409643587874568     0.0000603190812517428     0.0000865606944724557     0.0001138799952740300     0.0001346491670198492     0.0001424139510702007     0.0001346491660903379     0.0001138799942178952     0.0000865606944724557     0.0000603190833358226     0.0000409643635058101     0.0000269594812655262     0.0000159385830354755     0.0000078016469971832     0.0000020491821773411     -0.0000019303832896919     -0.0000046588007101406     -0.0000064856612954655     -0.0000076225092906574     -0.0000082340363058413     -0.0000084944625765551     -0.0000085597633777981 
    -0.0000044084279393665     -0.0000044602822847395     -0.0000045375497542616     -0.0000044477032259672     -0.0000039731719347729     -0.0000029257449812812     -0.0000011170629226005     0.0000017206330761856     0.0000059800647059834     0.0000121299943719927     0.0000205615018586161     0.0000313555835397903     0.0000440807571910452     0.0000603190833358226     0.0000780828016794906     0.0000919587960434744     0.0000972096591174765     0.0000919587942039501     0.0000780827989662450     0.0000603190812517428     0.0000440807571910451     0.0000313555866023875     0.0000205615083485592     0.0000121300041261411     0.0000059800771920459     0.0000017206475092358     -0.0000011170475322017     -0.0000029257297919150     -0.0000039731581712294     -0.0000044476919988781     -0.0000045375418870659     -0.0000044602782539037     -0.0000044084279393665 
    0.0000016195530751018     0.0000013881119007532     0.0000007995170583733     0.0000001193197993829     -0.0000003437423198552     -0.0000003324774759209     0.0000003502697674288     0.0000019043169191615     0.0000045924549168267     0.0000087332053085304     0.0000146031830319623     0.0000222630985795042     0.0000313555866023874     0.0000409643635058101     0.0000503798157752505     0.0000580828749426088     0.0000610611959707736     0.0000580828721386681     0.0000503798111804232     0.0000409643587874568     0.0000313555835397903     0.0000222630985795042     0.0000146031868738534     0.0000087332131392812     0.0000045924663842871     0.0000019043312960651     0.0000003502859985672     -0.0000003324607483532     -0.0000003437266442173     0.0000001193329188536     0.0000007995264217873     0.0000013881167516014     0.0000016195530751018 
    0.0000103794180725085     0.0000098678485043978     0.0000084898039312748     0.0000066458780929703     0.0000048163214093625     0.0000034044927886370     0.0000026749024353442     0.0000027926809852669     0.0000039004958269291     0.0000061602099506836     0.0000097197031034226     0.0000146031868738534     0.0000205615083485592     0.0000269594812655262     0.0000327977357140892     0.0000369293932825385     0.0000384259843075817     0.0000369293896249186     0.0000327977293542343     0.0000269594738689375     0.0000205615018586161     0.0000146031830319624     0.0000097197031034227     0.0000061602143326444     0.0000039005045540575     0.0000027926935465240     0.0000026749178699559     0.0000034045096761073     0.0000048163379610221     0.0000066458924209053     0.0000084898144053743     0.0000098678540098816     0.0000103794180725085 
    0.0000229800723864818     0.0000220477123162980     0.0000194911097133939     0.0000159314895469647     0.0000121291118762635     0.0000087362259740291     0.0000061642874461669     0.0000045938109097453     0.0000040686214774974     0.0000045910973463168     0.0000061602143326444     0.0000087332131392812     0.0000121300041261411     0.0000159385830354755     0.0000195051166818037     0.0000220671631492556     0.0000230015875428935     0.0000220671588339962     0.0000195051088821292     0.0000159385732864885     0.0000121299943719927     0.0000087332053085304     0.0000061602099506836     0.0000045910973463168     0.0000040686262099550     0.0000045938202034836     0.0000061643005911844     0.0000087362416505933     0.0000121291281884755     0.0000159315042905397     0.0000194911208205648     0.0000220477182609566     0.0000229800723864818 
    0.0000404165209604521     0.0000388553857504209     0.0000346776540932467     0.0000287709795125150     0.0000222863295713260     0.0000162289473774256     0.0000112421139246142     0.0000075851161191503     0.0000052422133308964     0.0000040686262099549     0.0000039005045540574     0.0000045924663842871     0.0000059800771920458     0.0000078016469971832     0.0000096524717460145     0.0000110431040961937     0.0000115607514882978     0.0000110430993536723     0.0000096524629372294     0.0000078016354460477     0.0000059800647059834     0.0000045924549168267     0.0000039004958269291     0.0000040686214774975     0.0000052422133308964     0.0000075851210861401     0.0000112421235221061     0.0000162289605499406     0.0000222863444862627     0.0000287709937789962     0.0000346776652592644     0.0000388553918634163     0.0000404165209604521 
    0.0000740464351077858     0.0000701994651934130     0.0000600913282534519     0.0000472951445091059     0.0000357586736567548     0.0000263729829637073     0.0000183463018468179     0.0000120863738868499     0.0000075851210861401     0.0000045938202034835     0.0000027926935465240     0.0000019043312960650     0.0000017206475092358     0.0000020491821773410     0.0000026403034972631     0.0000031831036357795     0.0000034013246181808     0.0000031830987151348     0.0000026402941709487     0.0000020491695144428     0.0000017206330761856     0.0000019043169191615     0.0000027926809852669     0.0000045938109097453     0.0000075851161191503     0.0000120863738868499     0.0000183463069215187     0.0000263729924643464     0.0000357586860073900     0.0000472951573210008     0.0000600913388100553     0.0000701994711469373     0.0000740464351077858 
    0.0001344073139231624     0.0001273317040198730     0.0001083526527648382     0.0000832063635446074     0.0000586520914429393     0.0000398355020848027     0.0000277456469830466     0.0000183463069215187     0.0000112421235221060     0.0000061643005911843     0.0000026749178699558     0.0000003502859985672     -0.0000011170475322017     -0.0000019303832896919     -0.0000022697329939508     -0.0000023422870757078     -0.0000023397137456833     -0.0000023422919093928     -0.0000022697422994482     -0.0000019303962665901     -0.0000011170629226005     0.0000003502697674288     0.0000026749024353442     0.0000061642874461669     0.0000112421139246143     0.0000183463018468179     0.0000277456469830466     0.0000398355070104657     0.0000586521001617410     0.0000832063739002248     0.0001083526619671420     0.0001273317094269369     0.0001344073139231624 
    0.0002212566390259016     0.0002102303288153879     0.0001802868661555631     0.0001395153111502746     0.0000977451114734132     0.0000631044908020818     0.0000398355070104657     0.0000263729924643463     0.0000162289605499406     0.0000087362416505933     0.0000034045096761073     -0.0000003324607483532     -0.0000029257297919151     -0.0000046588007101407     -0.0000057133979146298     -0.0000062493257693137     -0.0000064079524380667     -0.0000062493302434843     -0.0000057134066333231     -0.0000046588131264057     -0.0000029257449812812     -0.0000003324774759209     0.0000034044927886370     0.0000087362259740291     0.0000162289473774256     0.0000263729829637073     0.0000398355020848028     0.0000631044908020818     0.0000977451158353799     0.0001395153181809285     0.0001802868732512467     0.0002102303332461474     0.0002212566390259016 
    0.0003286007848804071     0.0003132383789177809     0.0002711924042967877     0.0002129394299836386     0.0001514050567995277     0.0000977451158353799     0.0000586521001617410     0.0000357586860073899     0.0000222863444862627     0.0000121291281884755     0.0000048163379610221     -0.0000003437266442173     -0.0000039731581712294     -0.0000064856612954656     -0.0000081167956992689     -0.0000090184835208469     -0.0000093035950235258     -0.0000090184873782821     -0.0000081168032859007     -0.0000064856722764285     -0.0000039731719347729     -0.0000003437423198552     0.0000048163214093625     0.0000121291118762635     0.0000222863295713260     0.0000357586736567548     0.0000586520914429394     0.0000977451114734132     0.0001514050567995277     0.0002129394332735134     0.0002711924087412225     0.0003132383820019197     0.0003286007848804071 
    0.0004438213659621102     0.0004241799352578477     0.0003701553941195772     0.0002944722004490439     0.0002129394332735133     0.0001395153181809285     0.0000832063739002248     0.0000472951573210008     0.0000287709937789961     0.0000159315042905397     0.0000066458924209053     0.0000001193329188536     -0.0000044476919988781     -0.0000076225092906574     -0.0000097231951065389     -0.0000109175604100139     -0.0000113034728858211     -0.0000109175634420172     -0.0000097232011094547     -0.0000076225180845092     -0.0000044477032259672     0.0000001193197993829     0.0000066458780929704     0.0000159314895469648     0.0000287709795125150     0.0000472951445091059     0.0000832063635446075     0.0001395153111502747     0.0002129394299836386     0.0002944722004490439     0.0003701553959352961     0.0004241799368920033     0.0004438213659621102 
    0.0005485845940111791     0.0005252607095240895     0.0004609135515119550     0.0003701553959352961     0.0002711924087412225     0.0001802868732512467     0.0001083526619671420     0.0000600913388100552     0.0000346776652592643     0.0000194911208205647     0.0000084898144053743     0.0000007995264217873     -0.0000045375418870659     -0.0000082340363058414     -0.0000106934995471509     -0.0000121086892664541     -0.0000125704752643029     -0.0000121086913375355     -0.0000106935036654419     -0.0000082340423885848     -0.0000045375497542616     0.0000007995170583733     0.0000084898039312747     0.0000194911097133939     0.0000346776540932467     0.0000600913282534519     0.0001083526527648383     0.0001802868661555631     0.0002711924042967876     0.0003701553941195772     0.0004609135515119550     0.0005252607100298336     0.0005485845940111791 
    0.0006225052832051356     0.0005966652060172045     0.0005252607100298333     0.0004241799368920033     0.0003132383820019196     0.0002102303332461474     0.0001273317094269369     0.0000701994711469372     0.0000388553918634162     0.0000220477182609566     0.0000098678540098815     0.0000013881167516014     -0.0000044602782539037     -0.0000084944625765551     -0.0000111817542481202     -0.0000127360690151138     -0.0000132455998643703     -0.0000127360700606183     -0.0000111817563320710     -0.0000084944656691639     -0.0000044602822847394     0.0000013881119007533     0.0000098678485043978     0.0000220477123162980     0.0000388553857504209     0.0000701994651934130     0.0001273317040198730     0.0002102303288153879     0.0003132383789177809     0.0004241799352578478     0.0005252607095240894     0.0005966652060172045     0.0006225052832051356 
    0.0006492422958343358     0.0006225052832051358     0.0005485845940111790     0.0004438213659621101     0.0003286007848804071     0.0002212566390259016     0.0001344073139231623     0.0000740464351077858     0.0000404165209604520     0.0000229800723864817     0.0000103794180725084     0.0000016195530751018     -0.0000044084279393665     -0.0000085597633777981     -0.0000113253554034814     -0.0000129273040110217     -0.0000134531738795454     -0.0000129273040110217     -0.0000113253554034814     -0.0000085597633777980     -0.0000044084279393664     0.0000016195530751018     0.0000103794180725085     0.0000229800723864818     0.0000404165209604521     0.0000740464351077859     0.0001344073139231624     0.0002212566390259016     0.0003286007848804072     0.0004438213659621101     0.0005485845940111791     0.0006225052832051358     0.0006492422958343358 
    0.0008905897021257320     0.0008580449056879053     0.0007677619393881992     0.0006385565383216114     0.0004932996688616132     0.0003521527406613077     0.0002295628233029813     0.0001343925401875541     0.0000707840187479181     0.0000383941957382105     0.0000204321754998508     0.0000078633098828278     -0.0000005803660189513     -0.0000062194945666310     -0.0000099217865187897     -0.0000120767832965329     -0.0000127910861452061     -0.0000120767832965329     -0.0000099217865187897     -0.0000062194945666309     -0.0000005803660189513     0.0000078633098828278     0.0000204321754998508     0.0000383941957382105     0.0000707840187479181     0.0001343925401875541     0.0002295628233029814     0.0003521527406613077     0.0004932996688616133     0.0006385565383216114     0.0007677619393881992     0.0008580449056879055     0.0008905897021257320 
    0.0008580449056879053     0.0008264421198034984     0.0007387923086169199     0.0006134325601332712     0.0004726885419084724     0.0003362762431112427     0.0002183059312319027     0.0001273232804053553     0.0000671358903312300     0.0000369024131108622     0.0000195419328624461     0.0000073840065439861     -0.0000008058812073560     -0.0000062933675890456     -0.0000099037256699141     -0.0000120061635116688     -0.0000127028422651253     -0.0000120061624930853     -0.0000099037236433646     -0.0000062933645751087     -0.0000008058772371296     0.0000073840114225205     0.0000195419385633526     0.0000369024194737420     0.0000671358970890448     0.0001273232871734811     0.0002183059375126612     0.0003362762483329484     0.0004726885455729823     0.0006134325620820063     0.0007387923092206516     0.0008264421198034985     0.0008580449056879053 
    0.0007677619393881993     0.0007387923092206516     0.0006585088072262428     0.0005439236487897987     0.0004158443229995348     0.0002927247758568629     0.0001876919486972862     0.0001083597824316211     0.0000575801505757494     0.0000327833521749606     0.0000170961886716297     0.0000060842296575744     -0.0000013924928978442     -0.0000064481642170655     -0.0000097926971802463     -0.0000117415097100113     -0.0000123864471456414     -0.0000117415077097903     -0.0000097926932094817     -0.0000064481583396307     -0.0000013924852181716     0.0000060842389837480     0.0000170961994061008     0.0000327833639385681     0.0000575801627939370     0.0001083597943218354     0.0001876919593042346     0.0002927247841710952     0.0004158443282605415     0.0005439236509506866     0.0006585088072262427     0.0007387923086169200     0.0007677619393881993 
    0.0006385565383216114     0.0006134325620820063     0.0005439236509506866     0.0004451385724093181     0.0003356696129158988     0.0002320591134781820     0.0001458680766912609     0.0000832300633285797     0.0000455719652735117     0.0000269609360022464     0.0000136789398446860     0.0000043218283047447     -0.0000021087558267258     -0.0000065138671803110     -0.0000094459803402529     -0.0000111517355739163     -0.0000117141904491270     -0.0000111517326801905     -0.0000094459746191670     -0.0000065138587818559     -0.0000021087450020042     0.0000043218411952652     0.0000136789543115446     0.0000269609513746158     0.0000455719806432559     0.0000832300775505199     0.0001458680884776590     0.0002320591216342666     0.0003356696167828004     0.0004451385724093181     0.0005439236487897987     0.0006134325601332713     0.0006385565383216114 
    0.0004932996688616133     0.0004726885455729824     0.0004158443282605415     0.0003356696167828004     0.0002481132623557334     0.0001673103259761186     0.0001027536764235548     0.0000586859841711040     0.0000348141097564958     0.0000205770430655821     0.0000100121360664949     0.0000025379615433187     -0.0000026715301295868     -0.0000062853164100875     -0.0000086944950918823     -0.0000100842760958248     -0.0000105385754442063     -0.0000100842724620280     -0.0000086944879525658     -0.0000062853060553808     -0.0000026715170385663     0.0000025379767113246     0.0000100121524919901     0.0000205770597565355     0.0000348141255166952     0.0000586859976254153     0.0001027536861779512     0.0001673103309631984     0.0002481132623557334     0.0003356696129158989     0.0004158443229995348     0.0004726885419084726     0.0004932996688616133 
    0.0003521527406613077     0.0003362762483329484     0.0002927247841710951     0.0002320591216342665     0.0001673103309631984     0.0001098122189040772     0.0000666078352804914     0.0000398719067390893     0.0000254375294415346     0.0000146276920919381     0.0000067250997226056     0.0000011202548365490     -0.0000028267539066167     -0.0000055728809167640     -0.0000073783428372958     -0.0000083934994023085     -0.0000087185769216624     -0.0000083934952453304     -0.0000073783347404688     -0.0000055728693598955     -0.0000028267396567298     0.0000011202707717867     0.0000067251161806872     0.0000146277078083812     0.0000254375430597742     0.0000398719168621963     0.0000666078406754070     0.0001098122189040772     0.0001673103259761186     0.0002320591134781819     0.0002927247758568628     0.0003362762431112426     0.0003521527406613077 
    0.0002295628233029813     0.0002183059375126611     0.0001876919593042346     0.0001458680884776590     0.0001027536861779511     0.0000666078406754070     0.0000418544738233002     0.0000277817199625821     0.0000174576937976644     0.0000097472222542227     0.0000042238301573535     0.0000003381094436528     -0.0000023694548644714     -0.0000041938599160070     -0.0000053200222328900     -0.0000059030929689925     -0.0000060782855214214     -0.0000059030885479900     -0.0000053200137176051     -0.0000041938480048655     -0.0000023694406285979     0.0000003381246665619     0.0000042238449290274     0.0000097472351588523     0.0000174577034912125     0.0000277817252383558     0.0000418544738233002     0.0000666078352804914     0.0001027536764235548     0.0001458680766912609     0.0001876919486972862     0.0002183059312319027     0.0002295628233029813 
    0.0001343925401875541     0.0001273232871734811     0.0001083597943218353     0.0000832300775505199     0.0000586859976254153     0.0000398719168621963     0.0000277817252383558     0.0000183786087881976     0.0000112690264228367     0.0000061859871131893     0.0000026924703330376     0.0000003650007866666     -0.0000011040260955497     -0.0000019182035317496     -0.0000022578599027011     -0.0000023304652437734     -0.0000023278824439979     -0.0000023304608303670     -0.0000022578515211611     -0.0000019181920988157     -0.0000011040129527111     0.0000003650140537978     0.0000026924821384392     0.0000061859960471974     0.0000112690313208354     0.0000183786087881976     0.0000277817199625821     0.0000398719067390893     0.0000586859841711040     0.0000832300633285797     0.0001083597824316211     0.0001273232804053553     0.0001343925401875541 
    0.0000707840187479181     0.0000671358970890447     0.0000575801627939369     0.0000455719806432558     0.0000348141255166952     0.0000254375430597742     0.0000174577034912125     0.0000112690313208354     0.0000068443054185076     0.0000039219649419069     0.0000021792851977088     0.0000013419332349443     0.0000012045419348833     0.0000015734700147159     0.0000021953953595901     0.0000027567788030512     0.0000029810811735769     0.0000027567829499749     0.0000021954030938537     0.0000015734802302246     0.0000012045530949873     0.0000013419436304576     0.0000021792932487268     0.0000039219693977256     0.0000068443054185076     0.0000112690264228366     0.0000174576937976644     0.0000254375294415346     0.0000348141097564958     0.0000455719652735116     0.0000575801505757494     0.0000671358903312300     0.0000707840187479181 
    0.0000383941957382105     0.0000369024194737420     0.0000327833639385681     0.0000269609513746158     0.0000205770597565356     0.0000146277078083812     0.0000097472351588523     0.0000061859960471974     0.0000039219693977256     0.0000028095239820857     0.0000026885757855396     0.0000034175338943849     0.0000048315173621893     0.0000066653781502703     0.0000085143492991050     0.0000098964171793022     0.0000104095179868408     0.0000098964208303868     0.0000085143559447894     0.0000066653865485439     0.0000048315258846662     0.0000034175408506931     0.0000026885797502306     0.0000028095239820857     0.0000039219649419069     0.0000061859871131893     0.0000097472222542226     0.0000146276920919381     0.0000205770430655821     0.0000269609360022464     0.0000327833521749607     0.0000369024131108622     0.0000383941957382105 
    0.0000204321754998508     0.0000195419385633526     0.0000170961994061008     0.0000136789543115446     0.0000100121524919901     0.0000067251161806872     0.0000042238449290274     0.0000026924821384392     0.0000021792932487268     0.0000026885797502306     0.0000042182125992383     0.0000067216074875281     0.0000100152476655032     0.0000136922093917646     0.0000171206341976334     0.0000195751245539426     0.0000204686795015178     0.0000195751275243269     0.0000171206394179448     0.0000136922155606482     0.0000100152531834218     0.0000067216108226008     0.0000042182125992383     0.0000026885757855395     0.0000021792851977088     0.0000026924703330376     0.0000042238301573535     0.0000067250997226056     0.0000100121360664949     0.0000136789398446860     0.0000170961886716297     0.0000195419328624461     0.0000204321754998508 
    0.0000078633098828277     0.0000073840114225205     0.0000060842389837480     0.0000043218411952651     0.0000025379767113245     0.0000011202707717867     0.0000003381246665619     0.0000003650140537978     0.0000013419436304576     0.0000034175408506932     0.0000067216108226008     0.0000112657315368468     0.0000168059373748021     0.0000227424533096892     0.0000281463537613911     0.0000319627597609652     0.0000333435633650134     0.0000319627619330136     0.0000281463573731748     0.0000227424570997421     0.0000168059398985782     0.0000112657315368468     0.0000067216074875280     0.0000034175338943849     0.0000013419332349442     0.0000003650007866665     0.0000003381094436528     0.0000011202548365489     0.0000025379615433187     0.0000043218283047447     0.0000060842296575743     0.0000073840065439860     0.0000078633098828277 
    -0.0000005803660189513     -0.0000008058772371297     -0.0000013924852181716     -0.0000021087450020042     -0.0000026715170385664     -0.0000028267396567298     -0.0000023694406285979     -0.0000011040129527110     0.0000012045530949873     0.0000048315258846662     0.0000100152531834218     0.0000168059398985782     0.0000248825613778405     0.0000334240941965185     0.0000411473767606670     0.0000465850080288015     0.0000485501486537684     0.0000465850093857272     0.0000411473787986614     0.0000334240958049236     0.0000248825613778405     0.0000168059373748021     0.0000100152476655032     0.0000048315173621892     0.0000012045419348832     -0.0000011040260955497     -0.0000023694548644714     -0.0000028267539066167     -0.0000026715301295868     -0.0000021087558267258     -0.0000013924928978442     -0.0000008058812073560     -0.0000005803660189513 
    -0.0000062194945666310     -0.0000062933645751088     -0.0000064481583396307     -0.0000065138587818559     -0.0000062853060553808     -0.0000055728693598955     -0.0000041938480048655     -0.0000019181920988157     0.0000015734802302246     0.0000066653865485440     0.0000136922155606482     0.0000227424570997421     0.0000334240958049236     0.0000446916903866688     0.0000549545040248083     0.0000630232468837498     0.0000661675269334789     0.0000630232475394289     0.0000549545047852495     0.0000446916903866688     0.0000334240941965185     0.0000227424533096892     0.0000136922093917646     0.0000066653781502703     0.0000015734700147159     -0.0000019182035317496     -0.0000041938599160070     -0.0000055728809167640     -0.0000062853164100875     -0.0000065138671803110     -0.0000064481642170655     -0.0000062933675890456     -0.0000062194945666310 
    -0.0000099217865187897     -0.0000099037236433647     -0.0000097926932094817     -0.0000094459746191671     -0.0000086944879525658     -0.0000073783347404688     -0.0000053200137176052     -0.0000022578515211611     0.0000021954030938537     0.0000085143559447894     0.0000171206394179448     0.0000281463573731748     0.0000411473787986614     0.0000549545047852495     0.0000695147706588136     0.0000812745453781708     0.0000857857794022131     0.0000812745455675886     0.0000695147706588136     0.0000549545040248083     0.0000411473767606670     0.0000281463537613910     0.0000171206341976334     0.0000085143492991050     0.0000021953953595900     -0.0000022578599027011     -0.0000053200222328901     -0.0000073783428372958     -0.0000086944950918824     -0.0000094459803402529     -0.0000097926971802463     -0.0000099037256699142     -0.0000099217865187897 
    -0.0000120767832965329     -0.0000120061624930853     -0.0000117415077097903     -0.0000111517326801906     -0.0000100842724620280     -0.0000083934952453304     -0.0000059030885479900     -0.0000023304608303669     0.0000027567829499749     0.0000098964208303868     0.0000195751275243269     0.0000319627619330136     0.0000465850093857272     0.0000630232475394289     0.0000812745455675886     0.0000957580462263625     0.0001012727724255035     0.0000957580462263625     0.0000812745453781708     0.0000630232468837498     0.0000465850080288015     0.0000319627597609651     0.0000195751245539425     0.0000098964171793022     0.0000027567788030512     -0.0000023304652437735     -0.0000059030929689925     -0.0000083934994023086     -0.0000100842760958249     -0.0000111517355739163     -0.0000117415097100113     -0.0000120061635116689     -0.0000120767832965329 
    -0.0000127910861452061     -0.0000127028422651253     -0.0000123864471456414     -0.0000117141904491270     -0.0000105385754442063     -0.0000087185769216624     -0.0000060782855214214     -0.0000023278824439978     0.0000029810811735769     0.0000104095179868408     0.0000204686795015178     0.0000333435633650134     0.0000485501486537684     0.0000661675269334789     0.0000857857794022131     0.0001012727724255035     0.0001071564246347758     0.0001012727724255035     0.0000857857794022131     0.0000661675269334789     0.0000485501486537684     0.0000333435633650134     0.0000204686795015178     0.0000104095179868408     0.0000029810811735769     -0.0000023278824439979     -0.0000060782855214214     -0.0000087185769216624     -0.0000105385754442063     -0.0000117141904491270     -0.0000123864471456413     -0.0000127028422651253     -0.0000127910861452061 
    -0.0000120767832965329     -0.0000120061635116689     -0.0000117415097100113     -0.0000111517355739163     -0.0000100842760958249     -0.0000083934994023086     -0.0000059030929689925     -0.0000023304652437735     0.0000027567788030512     0.0000098964171793022     0.0000195751245539426     0.0000319627597609652     0.0000465850080288015     0.0000630232468837498     0.0000812745453781708     0.0000957580462263625     0.0001012727724255035     0.0000957580462263625     0.0000812745455675886     0.0000630232475394289     0.0000465850093857272     0.0000319627619330136     0.0000195751275243269     0.0000098964208303868     0.0000027567829499749     -0.0000023304608303669     -0.0000059030885479900     -0.0000083934952453304     -0.0000100842724620280     -0.0000111517326801905     -0.0000117415077097903     -0.0000120061624930852     -0.0000120767832965329 
    -0.0000099217865187897     -0.0000099037256699142     -0.0000097926971802463     -0.0000094459803402529     -0.0000086944950918824     -0.0000073783428372958     -0.0000053200222328901     -0.0000022578599027011     0.0000021953953595900     0.0000085143492991050     0.0000171206341976334     0.0000281463537613910     0.0000411473767606670     0.0000549545040248083     0.0000695147706588136     0.0000812745455675885     0.0000857857794022131     0.0000812745453781708     0.0000695147706588136     0.0000549545047852495     0.0000411473787986614     0.0000281463573731748     0.0000171206394179448     0.0000085143559447894     0.0000021954030938537     -0.0000022578515211611     -0.0000053200137176052     -0.0000073783347404688     -0.0000086944879525658     -0.0000094459746191670     -0.0000097926932094816     -0.0000099037236433647     -0.0000099217865187897 
    -0.0000062194945666310     -0.0000062933675890456     -0.0000064481642170655     -0.0000065138671803110     -0.0000062853164100875     -0.0000055728809167640     -0.0000041938599160070     -0.0000019182035317496     0.0000015734700147159     0.0000066653781502703     0.0000136922093917646     0.0000227424533096892     0.0000334240941965185     0.0000446916903866688     0.0000549545047852495     0.0000630232475394289     0.0000661675269334789     0.0000630232468837498     0.0000549545040248083     0.0000446916903866688     0.0000334240958049236     0.0000227424570997421     0.0000136922155606482     0.0000066653865485440     0.0000015734802302246     -0.0000019181920988157     -0.0000041938480048655     -0.0000055728693598955     -0.0000062853060553808     -0.0000065138587818559     -0.0000064481583396307     -0.0000062933645751088     -0.0000062194945666310 
    -0.0000005803660189513     -0.0000008058812073560     -0.0000013924928978442     -0.0000021087558267258     -0.0000026715301295868     -0.0000028267539066167     -0.0000023694548644714     -0.0000011040260955496     0.0000012045419348833     0.0000048315173621892     0.0000100152476655032     0.0000168059373748021     0.0000248825613778404     0.0000334240958049236     0.0000411473787986614     0.0000465850093857272     0.0000485501486537684     0.0000465850080288015     0.0000411473767606670     0.0000334240941965185     0.0000248825613778405     0.0000168059398985782     0.0000100152531834218     0.0000048315258846662     0.0000012045530949873     -0.0000011040129527110     -0.0000023694406285979     -0.0000028267396567298     -0.0000026715170385663     -0.0000021087450020042     -0.0000013924852181716     -0.0000008058772371297     -0.0000005803660189513 
    0.0000078633098828278     0.0000073840065439860     0.0000060842296575743     0.0000043218283047447     0.0000025379615433187     0.0000011202548365489     0.0000003381094436528     0.0000003650007866666     0.0000013419332349442     0.0000034175338943849     0.0000067216074875280     0.0000112657315368468     0.0000168059398985782     0.0000227424570997421     0.0000281463573731748     0.0000319627619330136     0.0000333435633650134     0.0000319627597609652     0.0000281463537613911     0.0000227424533096892     0.0000168059373748021     0.0000112657315368468     0.0000067216108226008     0.0000034175408506932     0.0000013419436304576     0.0000003650140537978     0.0000003381246665619     0.0000011202707717867     0.0000025379767113246     0.0000043218411952652     0.0000060842389837480     0.0000073840114225205     0.0000078633098828278 
    0.0000204321754998508     0.0000195419328624461     0.0000170961886716297     0.0000136789398446860     0.0000100121360664949     0.0000067250997226056     0.0000042238301573535     0.0000026924703330376     0.0000021792851977088     0.0000026885757855395     0.0000042182125992382     0.0000067216108226008     0.0000100152531834217     0.0000136922155606482     0.0000171206394179448     0.0000195751275243269     0.0000204686795015178     0.0000195751245539426     0.0000171206341976334     0.0000136922093917646     0.0000100152476655032     0.0000067216074875281     0.0000042182125992383     0.0000026885797502306     0.0000021792932487268     0.0000026924821384392     0.0000042238449290274     0.0000067251161806872     0.0000100121524919901     0.0000136789543115446     0.0000170961994061008     0.0000195419385633526     0.0000204321754998508 
    0.0000383941957382105     0.0000369024131108622     0.0000327833521749606     0.0000269609360022464     0.0000205770430655821     0.0000146276920919381     0.0000097472222542226     0.0000061859871131893     0.0000039219649419069     0.0000028095239820857     0.0000026885797502306     0.0000034175408506931     0.0000048315258846662     0.0000066653865485439     0.0000085143559447894     0.0000098964208303868     0.0000104095179868408     0.0000098964171793022     0.0000085143492991051     0.0000066653781502703     0.0000048315173621893     0.0000034175338943849     0.0000026885757855396     0.0000028095239820857     0.0000039219693977256     0.0000061859960471974     0.0000097472351588523     0.0000146277078083812     0.0000205770597565355     0.0000269609513746158     0.0000327833639385681     0.0000369024194737420     0.0000383941957382105 
    0.0000707840187479181     0.0000671358903312300     0.0000575801505757494     0.0000455719652735116     0.0000348141097564958     0.0000254375294415347     0.0000174576937976644     0.0000112690264228366     0.0000068443054185076     0.0000039219693977256     0.0000021792932487268     0.0000013419436304576     0.0000012045530949873     0.0000015734802302246     0.0000021954030938537     0.0000027567829499749     0.0000029810811735769     0.0000027567788030513     0.0000021953953595901     0.0000015734700147159     0.0000012045419348833     0.0000013419332349443     0.0000021792851977088     0.0000039219649419069     0.0000068443054185076     0.0000112690313208354     0.0000174577034912125     0.0000254375430597742     0.0000348141255166952     0.0000455719806432558     0.0000575801627939369     0.0000671358970890448     0.0000707840187479181 
    0.0001343925401875541     0.0001273232804053553     0.0001083597824316211     0.0000832300633285797     0.0000586859841711040     0.0000398719067390892     0.0000277817199625821     0.0000183786087881976     0.0000112690313208354     0.0000061859960471973     0.0000026924821384391     0.0000003650140537978     -0.0000011040129527111     -0.0000019181920988158     -0.0000022578515211611     -0.0000023304608303670     -0.0000023278824439978     -0.0000023304652437734     -0.0000022578599027011     -0.0000019182035317496     -0.0000011040260955496     0.0000003650007866666     0.0000026924703330376     0.0000061859871131893     0.0000112690264228367     0.0000183786087881977     0.0000277817252383558     0.0000398719168621963     0.0000586859976254153     0.0000832300775505199     0.0001083597943218353     0.0001273232871734811     0.0001343925401875541 
    0.0002295628233029813     0.0002183059312319028     0.0001876919486972862     0.0001458680766912609     0.0001027536764235548     0.0000666078352804914     0.0000418544738233002     0.0000277817252383558     0.0000174577034912125     0.0000097472351588523     0.0000042238449290274     0.0000003381246665618     -0.0000023694406285979     -0.0000041938480048655     -0.0000053200137176052     -0.0000059030885479900     -0.0000060782855214214     -0.0000059030929689925     -0.0000053200222328900     -0.0000041938599160070     -0.0000023694548644714     0.0000003381094436528     0.0000042238301573535     0.0000097472222542227     0.0000174576937976644     0.0000277817199625821     0.0000418544738233002     0.0000666078406754070     0.0001027536861779512     0.0001458680884776590     0.0001876919593042346     0.0002183059375126611     0.0002295628233029813 
    0.0003521527406613078     0.0003362762431112427     0.0002927247758568628     0.0002320591134781819     0.0001673103259761186     0.0001098122189040772     0.0000666078406754069     0.0000398719168621963     0.0000254375430597742     0.0000146277078083812     0.0000067251161806872     0.0000011202707717867     -0.0000028267396567298     -0.0000055728693598955     -0.0000073783347404688     -0.0000083934952453305     -0.0000087185769216624     -0.0000083934994023085     -0.0000073783428372958     -0.0000055728809167640     -0.0000028267539066167     0.0000011202548365490     0.0000067250997226056     0.0000146276920919381     0.0000254375294415347     0.0000398719067390893     0.0000666078352804914     0.0001098122189040772     0.0001673103309631985     0.0002320591216342665     0.0002927247841710951     0.0003362762483329484     0.0003521527406613078 
    0.0004932996688616134     0.0004726885419084727     0.0004158443229995348     0.0003356696129158989     0.0002481132623557334     0.0001673103309631984     0.0001027536861779511     0.0000586859976254152     0.0000348141255166952     0.0000205770597565355     0.0000100121524919900     0.0000025379767113245     -0.0000026715170385664     -0.0000062853060553808     -0.0000086944879525658     -0.0000100842724620280     -0.0000105385754442064     -0.0000100842760958249     -0.0000086944950918824     -0.0000062853164100875     -0.0000026715301295868     0.0000025379615433187     0.0000100121360664949     0.0000205770430655821     0.0000348141097564958     0.0000586859841711041     0.0001027536764235548     0.0001673103259761186     0.0002481132623557334     0.0003356696167828005     0.0004158443282605415     0.0004726885455729824     0.0004932996688616134 
    0.0006385565383216114     0.0006134325601332713     0.0005439236487897986     0.0004451385724093181     0.0003356696167828003     0.0002320591216342665     0.0001458680884776590     0.0000832300775505199     0.0000455719806432558     0.0000269609513746157     0.0000136789543115446     0.0000043218411952651     -0.0000021087450020042     -0.0000065138587818559     -0.0000094459746191670     -0.0000111517326801905     -0.0000117141904491270     -0.0000111517355739162     -0.0000094459803402528     -0.0000065138671803110     -0.0000021087558267257     0.0000043218283047448     0.0000136789398446860     0.0000269609360022465     0.0000455719652735117     0.0000832300633285798     0.0001458680766912609     0.0002320591134781820     0.0003356696129158989     0.0004451385724093181     0.0005439236509506866     0.0006134325620820063     0.0006385565383216114 
    0.0007677619393881993     0.0007387923086169200     0.0006585088072262427     0.0005439236509506865     0.0004158443282605415     0.0002927247841710951     0.0001876919593042345     0.0001083597943218353     0.0000575801627939369     0.0000327833639385681     0.0000170961994061007     0.0000060842389837480     -0.0000013924852181716     -0.0000064481583396307     -0.0000097926932094816     -0.0000117415077097903     -0.0000123864471456413     -0.0000117415097100113     -0.0000097926971802463     -0.0000064481642170655     -0.0000013924928978442     0.0000060842296575744     0.0000170961886716298     0.0000327833521749607     0.0000575801505757495     0.0001083597824316212     0.0001876919486972863     0.0002927247758568629     0.0004158443229995350     0.0005439236487897987     0.0006585088072262427     0.0007387923092206516     0.0007677619393881993 
    0.0008580449056879053     0.0008264421198034984     0.0007387923092206515     0.0006134325620820063     0.0004726885455729823     0.0003362762483329483     0.0002183059375126611     0.0001273232871734811     0.0000671358970890447     0.0000369024194737420     0.0000195419385633525     0.0000073840114225205     -0.0000008058772371297     -0.0000062933645751088     -0.0000099037236433646     -0.0000120061624930853     -0.0000127028422651253     -0.0000120061635116688     -0.0000099037256699142     -0.0000062933675890456     -0.0000008058812073559     0.0000073840065439860     0.0000195419328624461     0.0000369024131108623     0.0000671358903312301     0.0001273232804053553     0.0002183059312319028     0.0003362762431112427     0.0004726885419084725     0.0006134325601332713     0.0007387923086169199     0.0008264421198034984     0.0008580449056879053 
    0.0008905897021257320     0.0008580449056879053     0.0007677619393881992     0.0006385565383216114     0.0004932996688616132     0.0003521527406613077     0.0002295628233029813     0.0001343925401875541     0.0000707840187479181     0.0000383941957382105     0.0000204321754998508     0.0000078633098828278     -0.0000005803660189513     -0.0000062194945666310     -0.0000099217865187897     -0.0000120767832965329     -0.0000127910861452061     -0.0000120767832965329     -0.0000099217865187897     -0.0000062194945666309     -0.0000005803660189513     0.0000078633098828278     0.0000204321754998508     0.0000383941957382105     0.0000707840187479181     0.0001343925401875541     0.0002295628233029814     0.0003521527406613077     0.0004932996688616133     0.0006385565383216114     0.0007677619393881992     0.0008580449056879055     0.0008905897021257320 
    0.0011319698379147025     0.0010947037577383279     0.0009914293494984164     0.0008434320474056145     0.0006752414619287777     0.0005068766237717523     0.0003521589632736358     0.0002212369479301703     0.0001223954672549092     0.0000610181590384823     0.0000333024234585158     0.0000157451795827595     0.0000041492334312025     -0.0000033367306004169     -0.0000081144070595389     -0.0000108644303177936     -0.0000117755281541641     -0.0000108644303177937     -0.0000081144070595389     -0.0000033367306004170     0.0000041492334312025     0.0000157451795827595     0.0000333024234585158     0.0000610181590384823     0.0001223954672549092     0.0002212369479301703     0.0003521589632736358     0.0005068766237717524     0.0006752414619287777     0.0008434320474056145     0.0009914293494984164     0.0010947037577383279     0.0011319698379147025 
    0.0010947037577383279     0.0010584049473893833     0.0009577975886087597     0.0008136119138113965     0.0006498283663821966     0.0004861562454511447     0.0003362982061094947     0.0002102300974549140     0.0001158520213372845     0.0000580496000351247     0.0000319275390099419     0.0000149655544492504     0.0000037362081875909     -0.0000035414067215220     -0.0000082027333137507     -0.0000108909970423197     -0.0000117821431604926     -0.0000108909960798034     -0.0000082027314048620     -0.0000035414038809807     0.0000037362119645259     0.0000149655591829189     0.0000319275446953800     0.0000580496065721910     0.0001158520284676665     0.0002102301047377459     0.0003362982129399436     0.0004861562511411727     0.0006498283703590612     0.0008136119159118331     0.0009577975892551400     0.0010584049473893833     0.0010947037577383279 
    0.0009914293494984166     0.0009577975892551403     0.0008645572406264006     0.0007309426525193965     0.0005794576282128149     0.0004289634831949729     0.0002927856959250005     0.0001803344697584730     0.0000983687290213712     0.0000503710601349909     0.0000281267034346940     0.0000128129328620950     0.0000026031326244110     -0.0000040888461451811     -0.0000084177801603893     -0.0000109268281217471     -0.0000117595855798419     -0.0000109268262526396     -0.0000084177764610114     -0.0000040888406657813     0.0000026031398505214     0.0000128129418113648     0.0000281267140234489     0.0000503710720979685     0.0000983687418009459     0.0001803344824689849     0.0002927857074153579     0.0004289634922447528     0.0005794576339295722     0.0007309426548555598     0.0008645572406264006     0.0009577975886087596     0.0009914293494984166 
    0.0008434320474056145     0.0008136119159118331     0.0007309426548555597     0.0006126243973952748     0.0004791408293624738     0.0003481181547097022     0.0002321621293434592     0.0001396138976956733     0.0000754113889178389     0.0000409849561847760     0.0000227425918777410     0.0000097760208325450     0.0000010313056612709     -0.0000048004191427845     -0.0000086251239488314     -0.0000108542602700637     -0.0000115944468021620     -0.0000108542576040954     -0.0000086251186927001     -0.0000048004114219623     0.0000010313157001865     0.0000097760330154253     0.0000227426059274520     0.0000409849715831542     0.0000754114047775575     0.0001396139127349030     0.0002321621420200246     0.0003481181635597087     0.0004791408335671653     0.0006126243973952748     0.0007309426525193965     0.0008136119138113965     0.0008434320474056145 
    0.0006752414619287778     0.0006498283703590612     0.0005794576339295720     0.0004791408335671654     0.0003671111421344320     0.0002594147692700196     0.0001674379561145709     0.0000978731898499366     0.0000533741913930322     0.0000314016988119613     0.0000168240501550661     0.0000064734524118574     -0.0000006140673948662     -0.0000054382112754037     -0.0000086439082078112     -0.0000105160239633428     -0.0000111360169604542     -0.0000105160206603187     -0.0000086439017352693     -0.0000054382018841858     -0.0000006140554297078     0.0000064734665174794     0.0000168240658289086     0.0000314017152315808     0.0000533742073779422     0.0000978732038669688     0.0001674379664885199     0.0002594147746455213     0.0003671111421344319     0.0004791408293624740     0.0005794576282128150     0.0006498283663821965     0.0006752414619287778 
    0.0005068766237717522     0.0004861562511411727     0.0004289634922447528     0.0003481181635597088     0.0002594147746455213     0.0001768464858411025     0.0001099369657970446     0.0000632314723028873     0.0000370232003267797     0.0000223247531768394     0.0000112958444123893     0.0000034670161181602     -0.0000019839802615921     -0.0000057614304067478     -0.0000082848493458262     -0.0000097470471851511     -0.0000102267699331168     -0.0000097470434488506     -0.0000082848420854422     -0.0000057614200426759     -0.0000019839674003649     0.0000034670307176251     0.0000112958598446590     0.0000223247683410739     0.0000370232138676821     0.0000632314826542649     0.0001099369714443922     0.0001768464858411025     0.0002594147692700196     0.0003481181547097022     0.0004289634831949729     0.0004861562454511446     0.0005068766237717522 
    0.0003521589632736358     0.0003362982129399437     0.0002927857074153578     0.0002321621420200246     0.0001674379664885199     0.0001099369714443922     0.0000667078208528409     0.0000399436136666596     0.0000254927907230250     0.0000146693783794481     0.0000067565172103350     0.0000011445526620994     -0.0000028071945619770     -0.0000055564190237758     -0.0000073638360879661     -0.0000083800801086070     -0.0000087055073756217     -0.0000083800761760493     -0.0000073638285265289     -0.0000055564084439983     -0.0000028071818492602     0.0000011445664277521     0.0000067565308362773     0.0000146693905900578     0.0000254928001560837     0.0000399436189442337     0.0000667078208528409     0.0001099369657970446     0.0001674379561145710     0.0002321621293434592     0.0002927856959250005     0.0003362982061094947     0.0003521589632736358 
    0.0002212369479301703     0.0002102301047377458     0.0001803344824689849     0.0001396139127349029     0.0000978732038669688     0.0000632314826542649     0.0000399436189442337     0.0000264658766493806     0.0000163044593835462     0.0000087956353718180     0.0000034512792698797     -0.0000002946503396163     -0.0000028938931887503     -0.0000046307616606734     -0.0000056876282338041     -0.0000062247410805862     -0.0000063837305058405     -0.0000062247372051280     -0.0000056876208770169     -0.0000046307516112401     -0.0000028938815737799     -0.0000002946384864154     0.0000034512899952816     0.0000087956436663718     0.0000163044640446744     0.0000264658766493806     0.0000399436136666595     0.0000632314723028873     0.0000978731898499365     0.0001396138976956732     0.0001803344697584730     0.0002102300974549139     0.0002212369479301703 
    0.0001223954672549092     0.0001158520284676665     0.0000983687418009459     0.0000754114047775574     0.0000533742073779422     0.0000370232138676821     0.0000254928001560838     0.0000163044640446744     0.0000094686617406320     0.0000046468631444144     0.0000013710970761553     -0.0000007801969342301     -0.0000021020213036366     -0.0000027919817777966     -0.0000030347504410187     -0.0000030458659350973     -0.0000030223322543745     -0.0000030458623638849     -0.0000030347437683762     -0.0000027919729290413     -0.0000021020115672594     -0.0000007801877652009     0.0000013711042833937     0.0000046468672067674     0.0000094686617406319     0.0000163044593835462     0.0000254927907230250     0.0000370232003267797     0.0000533741913930322     0.0000754113889178388     0.0000983687290213711     0.0001158520213372845     0.0001223954672549092 
    0.0000610181590384824     0.0000580496065721910     0.0000503710720979685     0.0000409849715831542     0.0000314017152315809     0.0000223247683410739     0.0000146693905900579     0.0000087956436663719     0.0000046468672067675     0.0000019500179234615     0.0000003889102873262     -0.0000002981467040785     -0.0000003108496249578     0.0000001530356184843     0.0000008352142710569     0.0000014256817220934     0.0000016578752834072     0.0000014256847751039     0.0000008352198570960     0.0000001530427367170     -0.0000003108423212420     -0.0000002981406629057     0.0000003889137824992     0.0000019500179234614     0.0000046468631444144     0.0000087956353718180     0.0000146693783794480     0.0000223247531768394     0.0000314016988119613     0.0000409849561847760     0.0000503710601349909     0.0000580496000351248     0.0000610181590384824 
    0.0000333024234585158     0.0000319275446953800     0.0000281267140234489     0.0000227426059274520     0.0000168240658289086     0.0000112958598446590     0.0000067565308362773     0.0000034512899952816     0.0000013711042833937     0.0000003889137824992     0.0000003583520098746     0.0000011398389209787     0.0000025602848253953     0.0000043495424635510     0.0000061182551759824     0.0000074230683190984     0.0000079042896311827     0.0000074230707031193     0.0000061182594069471     0.0000043495475361776     0.0000025602894414445     0.0000011398417620207     0.0000003583520098746     0.0000003889102873261     0.0000013710970761552     0.0000034512792698796     0.0000067565172103349     0.0000112958444123892     0.0000168240501550661     0.0000227425918777410     0.0000281267034346939     0.0000319275390099419     0.0000333024234585158 
    0.0000157451795827595     0.0000149655591829190     0.0000128129418113648     0.0000097760330154253     0.0000064734665174794     0.0000034670307176251     0.0000011445664277520     -0.0000002946384864154     -0.0000007801877652009     -0.0000002981406629057     0.0000011398417620208     0.0000034650900043197     0.0000064789037415150     0.0000097924179371396     0.0000128411882591288     0.0000150030216200454     0.0000157861247965220     0.0000150030232758485     0.0000128411910548728     0.0000097924209365061     0.0000064789057900733     0.0000034650900043197     0.0000011398389209788     -0.0000002981467040786     -0.0000007801969342302     -0.0000002946503396163     0.0000011445526620994     0.0000034670161181602     0.0000064734524118574     0.0000097760208325450     0.0000128129328620949     0.0000149655544492504     0.0000157451795827595 
    0.0000041492334312025     0.0000037362119645260     0.0000026031398505214     0.0000010313157001865     -0.0000006140554297078     -0.0000019839674003649     -0.0000028071818492602     -0.0000028938815737799     -0.0000021020115672593     -0.0000003108423212419     0.0000025602894414446     0.0000064789057900733     0.0000111995775571684     0.0000161970986427131     0.0000207001638793925     0.0000238575120852840     0.0000249956278883773     0.0000238575130617382     0.0000207001653771161     0.0000161970998612790     0.0000111995775571683     0.0000064789037415150     0.0000025602848253953     -0.0000003108496249578     -0.0000021020213036367     -0.0000028938931887503     -0.0000028071945619770     -0.0000019839802615921     -0.0000006140673948662     0.0000010313056612709     0.0000026031326244110     0.0000037362081875909     0.0000041492334312025 
    -0.0000033367306004170     -0.0000035414038809807     -0.0000040888406657813     -0.0000048004114219623     -0.0000054382018841857     -0.0000057614200426759     -0.0000055564084439982     -0.0000046307516112401     -0.0000027919729290413     0.0000001530427367170     0.0000043495475361776     0.0000097924209365061     0.0000161970998612790     0.0000229085919416123     0.0000289346151309075     0.0000331571571645965     0.0000346795044478172     0.0000331571576103299     0.0000289346156615466     0.0000229085919416123     0.0000161970986427131     0.0000097924179371396     0.0000043495424635510     0.0000001530356184842     -0.0000027919817777966     -0.0000046307616606734     -0.0000055564190237758     -0.0000057614304067478     -0.0000054382112754036     -0.0000048004191427845     -0.0000040888461451811     -0.0000035414067215220     -0.0000033367306004170 
    -0.0000081144070595389     -0.0000082027314048619     -0.0000084177764610114     -0.0000086251186927001     -0.0000086439017352692     -0.0000082848420854422     -0.0000073638285265289     -0.0000056876208770169     -0.0000030347437683762     0.0000008352198570960     0.0000061182594069471     0.0000128411910548728     0.0000207001653771161     0.0000289346156615466     0.0000363477312451750     0.0000415578704688332     0.0000434397635108812     0.0000415578705915511     0.0000363477312451750     0.0000289346151309075     0.0000207001638793925     0.0000128411882591288     0.0000061182551759824     0.0000008352142710568     -0.0000030347504410187     -0.0000056876282338041     -0.0000073638360879661     -0.0000082848493458262     -0.0000086439082078112     -0.0000086251239488315     -0.0000084177801603893     -0.0000082027333137507     -0.0000081144070595389 
    -0.0000108644303177937     -0.0000108909960798033     -0.0000109268262526396     -0.0000108542576040954     -0.0000105160206603186     -0.0000097470434488506     -0.0000083800761760493     -0.0000062247372051280     -0.0000030458623638849     0.0000014256847751039     0.0000074230707031194     0.0000150030232758485     0.0000238575130617382     0.0000331571576103299     0.0000415578705915511     0.0000474800402402758     0.0000496228354024271     0.0000474800402402758     0.0000415578704688332     0.0000331571571645965     0.0000238575120852840     0.0000150030216200454     0.0000074230683190984     0.0000014256817220934     -0.0000030458659350974     -0.0000062247410805862     -0.0000083800801086070     -0.0000097470471851511     -0.0000105160239633427     -0.0000108542602700636     -0.0000109268281217471     -0.0000108909970423197     -0.0000108644303177937 
    -0.0000117755281541642     -0.0000117821431604926     -0.0000117595855798419     -0.0000115944468021620     -0.0000111360169604542     -0.0000102267699331168     -0.0000087055073756217     -0.0000063837305058405     -0.0000030223322543745     0.0000016578752834072     0.0000079042896311827     0.0000157861247965220     0.0000249956278883773     0.0000346795044478172     0.0000434397635108812     0.0000496228354024271     0.0000518615494909898     0.0000496228354024271     0.0000434397635108812     0.0000346795044478172     0.0000249956278883773     0.0000157861247965220     0.0000079042896311827     0.0000016578752834072     -0.0000030223322543746     -0.0000063837305058405     -0.0000087055073756217     -0.0000102267699331168     -0.0000111360169604542     -0.0000115944468021620     -0.0000117595855798419     -0.0000117821431604926     -0.0000117755281541642 
    -0.0000108644303177937     -0.0000108909970423197     -0.0000109268281217471     -0.0000108542602700636     -0.0000105160239633427     -0.0000097470471851511     -0.0000083800801086070     -0.0000062247410805862     -0.0000030458659350973     0.0000014256817220934     0.0000074230683190985     0.0000150030216200454     0.0000238575120852840     0.0000331571571645965     0.0000415578704688332     0.0000474800402402758     0.0000496228354024271     0.0000474800402402758     0.0000415578705915511     0.0000331571576103298     0.0000238575130617382     0.0000150030232758485     0.0000074230707031193     0.0000014256847751039     -0.0000030458623638849     -0.0000062247372051280     -0.0000083800761760493     -0.0000097470434488506     -0.0000105160206603186     -0.0000108542576040954     -0.0000109268262526396     -0.0000108909960798034     -0.0000108644303177937 
    -0.0000081144070595389     -0.0000082027333137507     -0.0000084177801603893     -0.0000086251239488314     -0.0000086439082078111     -0.0000082848493458262     -0.0000073638360879661     -0.0000056876282338041     -0.0000030347504410187     0.0000008352142710568     0.0000061182551759824     0.0000128411882591288     0.0000207001638793925     0.0000289346151309075     0.0000363477312451750     0.0000415578705915511     0.0000434397635108812     0.0000415578704688331     0.0000363477312451750     0.0000289346156615466     0.0000207001653771160     0.0000128411910548728     0.0000061182594069470     0.0000008352198570959     -0.0000030347437683763     -0.0000056876208770169     -0.0000073638285265290     -0.0000082848420854422     -0.0000086439017352692     -0.0000086251186927001     -0.0000084177764610114     -0.0000082027314048619     -0.0000081144070595389 
    -0.0000033367306004169     -0.0000035414067215220     -0.0000040888461451811     -0.0000048004191427845     -0.0000054382112754036     -0.0000057614304067478     -0.0000055564190237758     -0.0000046307616606734     -0.0000027919817777966     0.0000001530356184843     0.0000043495424635510     0.0000097924179371396     0.0000161970986427131     0.0000229085919416123     0.0000289346156615466     0.0000331571576103299     0.0000346795044478172     0.0000331571571645965     0.0000289346151309075     0.0000229085919416123     0.0000161970998612790     0.0000097924209365061     0.0000043495475361776     0.0000001530427367170     -0.0000027919729290413     -0.0000046307516112401     -0.0000055564084439983     -0.0000057614200426759     -0.0000054382018841858     -0.0000048004114219623     -0.0000040888406657813     -0.0000035414038809807     -0.0000033367306004169 
    0.0000041492334312025     0.0000037362081875909     0.0000026031326244110     0.0000010313056612709     -0.0000006140673948662     -0.0000019839802615921     -0.0000028071945619770     -0.0000028938931887503     -0.0000021020213036366     -0.0000003108496249578     0.0000025602848253954     0.0000064789037415151     0.0000111995775571684     0.0000161970998612790     0.0000207001653771161     0.0000238575130617382     0.0000249956278883773     0.0000238575120852840     0.0000207001638793925     0.0000161970986427131     0.0000111995775571683     0.0000064789057900733     0.0000025602894414445     -0.0000003108423212420     -0.0000021020115672594     -0.0000028938815737800     -0.0000028071818492602     -0.0000019839674003649     -0.0000006140554297078     0.0000010313157001865     0.0000026031398505214     0.0000037362119645259     0.0000041492334312025 
    0.0000157451795827595     0.0000149655544492504     0.0000128129328620949     0.0000097760208325450     0.0000064734524118574     0.0000034670161181602     0.0000011445526620994     -0.0000002946503396163     -0.0000007801969342301     -0.0000002981467040786     0.0000011398389209788     0.0000034650900043197     0.0000064789057900733     0.0000097924209365061     0.0000128411910548729     0.0000150030232758485     0.0000157861247965220     0.0000150030216200454     0.0000128411882591288     0.0000097924179371396     0.0000064789037415150     0.0000034650900043197     0.0000011398417620208     -0.0000002981406629057     -0.0000007801877652009     -0.0000002946384864154     0.0000011445664277520     0.0000034670307176251     0.0000064734665174794     0.0000097760330154253     0.0000128129418113648     0.0000149655591829189     0.0000157451795827595 
    0.0000333024234585158     0.0000319275390099419     0.0000281267034346940     0.0000227425918777410     0.0000168240501550661     0.0000112958444123893     0.0000067565172103349     0.0000034512792698797     0.0000013710970761552     0.0000003889102873261     0.0000003583520098746     0.0000011398417620207     0.0000025602894414445     0.0000043495475361776     0.0000061182594069471     0.0000074230707031193     0.0000079042896311827     0.0000074230683190984     0.0000061182551759824     0.0000043495424635510     0.0000025602848253953     0.0000011398389209787     0.0000003583520098746     0.0000003889137824992     0.0000013711042833937     0.0000034512899952816     0.0000067565308362773     0.0000112958598446590     0.0000168240658289086     0.0000227426059274520     0.0000281267140234489     0.0000319275446953800     0.0000333024234585158 
    0.0000610181590384823     0.0000580496000351248     0.0000503710601349909     0.0000409849561847760     0.0000314016988119613     0.0000223247531768394     0.0000146693783794481     0.0000087956353718180     0.0000046468631444144     0.0000019500179234614     0.0000003889137824992     -0.0000002981406629057     -0.0000003108423212419     0.0000001530427367170     0.0000008352198570960     0.0000014256847751039     0.0000016578752834072     0.0000014256817220934     0.0000008352142710568     0.0000001530356184843     -0.0000003108496249578     -0.0000002981467040786     0.0000003889102873261     0.0000019500179234614     0.0000046468672067674     0.0000087956436663718     0.0000146693905900579     0.0000223247683410739     0.0000314017152315809     0.0000409849715831542     0.0000503710720979685     0.0000580496065721910     0.0000610181590384823 
    0.0001223954672549091     0.0001158520213372845     0.0000983687290213711     0.0000754113889178388     0.0000533741913930322     0.0000370232003267797     0.0000254927907230250     0.0000163044593835462     0.0000094686617406319     0.0000046468672067674     0.0000013711042833937     -0.0000007801877652009     -0.0000021020115672594     -0.0000027919729290413     -0.0000030347437683763     -0.0000030458623638849     -0.0000030223322543746     -0.0000030458659350973     -0.0000030347504410187     -0.0000027919817777966     -0.0000021020213036367     -0.0000007801969342302     0.0000013710970761552     0.0000046468631444144     0.0000094686617406319     0.0000163044640446744     0.0000254928001560837     0.0000370232138676821     0.0000533742073779422     0.0000754114047775574     0.0000983687418009459     0.0001158520284676665     0.0001223954672549091 
    0.0002212369479301703     0.0002102300974549139     0.0001803344697584729     0.0001396138976956732     0.0000978731898499365     0.0000632314723028873     0.0000399436136666595     0.0000264658766493806     0.0000163044640446744     0.0000087956436663718     0.0000034512899952816     -0.0000002946384864154     -0.0000028938815737800     -0.0000046307516112402     -0.0000056876208770169     -0.0000062247372051280     -0.0000063837305058405     -0.0000062247410805862     -0.0000056876282338041     -0.0000046307616606734     -0.0000028938931887503     -0.0000002946503396163     0.0000034512792698797     0.0000087956353718180     0.0000163044593835462     0.0000264658766493806     0.0000399436189442337     0.0000632314826542649     0.0000978732038669688     0.0001396139127349029     0.0001803344824689849     0.0002102301047377458     0.0002212369479301703 
    0.0003521589632736356     0.0003362982061094947     0.0002927856959250004     0.0002321621293434592     0.0001674379561145709     0.0001099369657970445     0.0000667078208528409     0.0000399436189442337     0.0000254928001560837     0.0000146693905900579     0.0000067565308362773     0.0000011445664277521     -0.0000028071818492602     -0.0000055564084439983     -0.0000073638285265289     -0.0000083800761760493     -0.0000087055073756217     -0.0000083800801086069     -0.0000073638360879661     -0.0000055564190237758     -0.0000028071945619770     0.0000011445526620994     0.0000067565172103349     0.0000146693783794480     0.0000254927907230250     0.0000399436136666596     0.0000667078208528409     0.0001099369714443922     0.0001674379664885199     0.0002321621420200246     0.0002927857074153578     0.0003362982129399436     0.0003521589632736356 
    0.0005068766237717522     0.0004861562454511446     0.0004289634831949729     0.0003481181547097022     0.0002594147692700195     0.0001768464858411025     0.0001099369714443922     0.0000632314826542649     0.0000370232138676821     0.0000223247683410739     0.0000112958598446591     0.0000034670307176251     -0.0000019839674003649     -0.0000057614200426759     -0.0000082848420854422     -0.0000097470434488506     -0.0000102267699331168     -0.0000097470471851510     -0.0000082848493458261     -0.0000057614304067478     -0.0000019839802615921     0.0000034670161181602     0.0000112958444123893     0.0000223247531768394     0.0000370232003267797     0.0000632314723028873     0.0001099369657970446     0.0001768464858411025     0.0002594147746455213     0.0003481181635597088     0.0004289634922447528     0.0004861562511411727     0.0005068766237717522 
    0.0006752414619287779     0.0006498283663821965     0.0005794576282128150     0.0004791408293624740     0.0003671111421344319     0.0002594147746455212     0.0001674379664885199     0.0000978732038669688     0.0000533742073779422     0.0000314017152315808     0.0000168240658289085     0.0000064734665174794     -0.0000006140554297078     -0.0000054382018841858     -0.0000086439017352693     -0.0000105160206603186     -0.0000111360169604542     -0.0000105160239633428     -0.0000086439082078112     -0.0000054382112754037     -0.0000006140673948662     0.0000064734524118574     0.0000168240501550661     0.0000314016988119613     0.0000533741913930322     0.0000978731898499366     0.0001674379561145710     0.0002594147692700196     0.0003671111421344320     0.0004791408335671654     0.0005794576339295720     0.0006498283703590612     0.0006752414619287779 
    0.0008434320474056143     0.0008136119138113965     0.0007309426525193963     0.0006126243973952748     0.0004791408335671652     0.0003481181635597087     0.0002321621420200245     0.0001396139127349029     0.0000754114047775574     0.0000409849715831542     0.0000227426059274519     0.0000097760330154253     0.0000010313157001865     -0.0000048004114219623     -0.0000086251186927001     -0.0000108542576040954     -0.0000115944468021620     -0.0000108542602700636     -0.0000086251239488315     -0.0000048004191427845     0.0000010313056612709     0.0000097760208325451     0.0000227425918777410     0.0000409849561847760     0.0000754113889178388     0.0001396138976956732     0.0002321621293434592     0.0003481181547097021     0.0004791408293624738     0.0006126243973952748     0.0007309426548555597     0.0008136119159118331     0.0008434320474056143 
    0.0009914293494984166     0.0009577975886087596     0.0008645572406264006     0.0007309426548555598     0.0005794576339295722     0.0004289634922447528     0.0002927857074153578     0.0001803344824689849     0.0000983687418009459     0.0000503710720979685     0.0000281267140234489     0.0000128129418113648     0.0000026031398505213     -0.0000040888406657813     -0.0000084177764610114     -0.0000109268262526396     -0.0000117595855798419     -0.0000109268281217471     -0.0000084177801603894     -0.0000040888461451811     0.0000026031326244110     0.0000128129328620949     0.0000281267034346940     0.0000503710601349909     0.0000983687290213711     0.0001803344697584730     0.0002927856959250005     0.0004289634831949729     0.0005794576282128149     0.0007309426525193965     0.0008645572406264006     0.0009577975892551403     0.0009914293494984166 
    0.0010947037577383281     0.0010584049473893833     0.0009577975892551400     0.0008136119159118331     0.0006498283703590612     0.0004861562511411728     0.0003362982129399436     0.0002102301047377458     0.0001158520284676665     0.0000580496065721910     0.0000319275446953800     0.0000149655591829189     0.0000037362119645259     -0.0000035414038809807     -0.0000082027314048619     -0.0000108909960798034     -0.0000117821431604926     -0.0000108909970423197     -0.0000082027333137508     -0.0000035414067215220     0.0000037362081875909     0.0000149655544492504     0.0000319275390099419     0.0000580496000351248     0.0001158520213372845     0.0002102300974549140     0.0003362982061094947     0.0004861562454511447     0.0006498283663821966     0.0008136119138113965     0.0009577975886087596     0.0010584049473893833     0.0010947037577383281 
    0.0011319698379147025     0.0010947037577383279     0.0009914293494984164     0.0008434320474056145     0.0006752414619287777     0.0005068766237717523     0.0003521589632736358     0.0002212369479301703     0.0001223954672549092     0.0000610181590384823     0.0000333024234585158     0.0000157451795827595     0.0000041492334312025     -0.0000033367306004169     -0.0000081144070595389     -0.0000108644303177936     -0.0000117755281541641     -0.0000108644303177937     -0.0000081144070595389     -0.0000033367306004170     0.0000041492334312025     0.0000157451795827595     0.0000333024234585158     0.0000610181590384823     0.0001223954672549092     0.0002212369479301703     0.0003521589632736358     0.0005068766237717524     0.0006752414619287777     0.0008434320474056145     0.0009914293494984164     0.0010947037577383279     0.0011319698379147025 
    0.0013730886589679815     0.0013312709215197514     0.0012159267108545384     0.0010516798217067502     0.0008651339557451574     0.0006753109311934143     0.0004933560155536361     0.0003286022994377889     0.0001926540595948235     0.0000971552782993832     0.0000485061763034094     0.0000249569242382883     0.0000095505446948283     -0.0000001034896269149     -0.0000060687036897928     -0.0000094338684870793     -0.0000105408640071569     -0.0000094338684870794     -0.0000060687036897928     -0.0000001034896269149     0.0000095505446948282     0.0000249569242382883     0.0000485061763034094     0.0000971552782993832     0.0001926540595948235     0.0003286022994377889     0.0004933560155536361     0.0006753109311934143     0.0008651339557451574     0.0010516798217067502     0.0012159267108545384     0.0013312709215197514     0.0013730886589679815 
    0.0013312709215197518     0.0012904910229901852     0.0011779516886086933     0.0010175625666670311     0.0008352842523500925     0.0006499270290219565     0.0004727865319797047     0.0003132796264654597     0.0001826738356759582     0.0000919220385696943     0.0000465503290267242     0.0000238241613849388     0.0000089310599835817     -0.0000004376343405979     -0.0000062518234643686     -0.0000095417361325278     -0.0000106253564561681     -0.0000095417352671774     -0.0000062518217533970     -0.0000004376317941122     0.0000089310633965537     0.0000238241657354611     0.0000465503343725154     0.0000919220448613410     0.0001826738426682507     0.0003132796336816260     0.0004727865387507315     0.0006499270346161437     0.0008352842562074408     0.0010175625686745828     0.0011779516892187830     0.0012904910229901852     0.0013312709215197518 
    0.0012159267108545382     0.0011779516892187832     0.0010730039271835629     0.0009231040144931801     0.0007525457293053258     0.0005796293086914943     0.0004160458765902448     0.0002713317700148761     0.0001556909743510953     0.0000780893941214526     0.0000411370013830868     0.0000206809738861755     0.0000072061361758167     -0.0000013682957200151     -0.0000067562682431853     -0.0000098303149903851     -0.0000108461694592720     -0.0000098303133300491     -0.0000067562649663944     -0.0000013682908644914     0.0000072061426322369     0.0000206809820229778     0.0000411370112424785     0.0000780894055419593     0.0001556909868099714     0.0002713317825712451     0.0004160458879823430     0.0005796293176167559     0.0007525457348807931     0.0009231040167417951     0.0010730039271835629     0.0011779516886086929     0.0012159267108545382 
    0.0010516798217067504     0.0010175625686745830     0.0009231040167417951     0.0007878709827584681     0.0006340624844344229     0.0004793934320348684     0.0003359843498559139     0.0002131842839727412     0.0001193230627240026     0.0000603734941229421     0.0000334442428939004     0.0000161961419888596     0.0000047328179673292     -0.0000026973747598838     -0.0000074535969246000     -0.0000101972805170194     -0.0000111073637915165     -0.0000101972781843864     -0.0000074535923380114     -0.0000026973680190603     0.0000047328268044292     0.0000161961529033857     0.0000334442557937667     0.0000603735086433979     0.0001193230780395641     0.0002131842987452692     0.0003359843624090204     0.0004793934407923593     0.0006340624885649356     0.0007878709827584681     0.0009231040144931801     0.0010175625666670315     0.0010516798217067504 
    0.0008651339557451574     0.0008352842562074408     0.0007525457348807931     0.0006340624885649357     0.0004999955548907745     0.0003674140410023511     0.0002484958693355023     0.0001517110227358797     0.0000827676796293106     0.0000441716984372611     0.0000249299264160379     0.0000112156033040757     0.0000019818242701183     -0.0000041467052299798     -0.0000081517180861146     -0.0000104844555481254     -0.0000112595939819999     -0.0000104844526973605     -0.0000081517125144619     -0.0000041466971437348     0.0000019818346501093     0.0000112156157466565     0.0000249299405805011     0.0000441717136892100     0.0000827676948691890     0.0001517110363793004     0.0002484958795648305     0.0003674140463278757     0.0004999955548907745     0.0006340624844344229     0.0007525457293053262     0.0008352842523500925     0.0008651339557451574 
    0.0006753109311934144     0.0006499270346161437     0.0005796293176167558     0.0004793934407923593     0.0003674140463278757     0.0002597151367703271     0.0001676861312521156     0.0000980441410604091     0.0000534765861836149     0.0000314692662286595     0.0000168709850782508     0.0000065068619520743     -0.0000005891767071088     -0.0000054186561635524     -0.0000086276474785773     -0.0000105015877160174     -0.0000111221688027427     -0.0000105015845231932     -0.0000086276412903092     -0.0000054186473319304     -0.0000005891656805115     0.0000065068746532112     0.0000168709988067172     0.0000314692800834093     0.0000534765988919035     0.0000980441510043838     0.0001676861367713931     0.0002597151367703271     0.0003674140410023511     0.0004793934320348684     0.0005796293086914943     0.0006499270290219565     0.0006753109311934144 
    0.0004933560155536359     0.0004727865387507314     0.0004160458879823430     0.0003359843624090204     0.0002484958795648304     0.0001676861367713931     0.0001030572711618149     0.0000588933454371481     0.0000349549022909244     0.0000206799273669164     0.0000100869866828191     0.0000025937915997570     -0.0000026281487321403     -0.0000062500109501019     -0.0000086642987728652     -0.0000100569427802137     -0.0000105121683525804     -0.0000100569394441820     -0.0000086642923729830     -0.0000062500019997763     -0.0000026281379270527     0.0000025938034405746     0.0000100869986303021     0.0000206799383350206     0.0000349549109853240     0.0000588933504202246     0.0001030572711618149     0.0001676861312521156     0.0002484958693355023     0.0003359843498559139     0.0004160458765902447     0.0004727865319797048     0.0004933560155536359 
    0.0003286022994377889     0.0003132796336816260     0.0002713317825712451     0.0002131842987452692     0.0001517110363793003     0.0000980441510043838     0.0000588933504202246     0.0000359415475555796     0.0000224313361592266     0.0000122401183546577     0.0000049011897210831     -0.0000002773287282906     -0.0000039192703201503     -0.0000064400716537125     -0.0000080764834418281     -0.0000089811093928478     -0.0000092671624677292     -0.0000089811061333566     -0.0000080764772623020     -0.0000064400632106300     -0.0000039192605213507     -0.0000002773186302700     0.0000049011990031240     0.0000122401256812958     0.0000224313403719538     0.0000359415475555796     0.0000588933454371481     0.0000980441410604091     0.0001517110227358796     0.0002131842839727412     0.0002713317700148761     0.0003132796264654597     0.0003286022994377889 
    0.0001926540595948235     0.0001826738426682507     0.0001556909868099713     0.0001193230780395641     0.0000827676948691890     0.0000534765988919035     0.0000349549109853240     0.0000224313403719538     0.0000129315194459776     0.0000060756564656840     0.0000012671684492835     -0.0000020719084095219     -0.0000043600655254659     -0.0000058509535217484     -0.0000067194093042535     -0.0000071355107163570     -0.0000072526533381205     -0.0000071355077568796     -0.0000067194037706066     -0.0000058509461655649     -0.0000043600573877562     -0.0000020719006751723     0.0000012671746097868     0.0000060756599965687     0.0000129315194459776     0.0000224313361592266     0.0000349549022909244     0.0000534765861836149     0.0000827676796293106     0.0001193230627240025     0.0001556909743510953     0.0001826738356759582     0.0001926540595948235 
    0.0000971552782993832     0.0000919220448613410     0.0000780894055419594     0.0000603735086433979     0.0000441717136892100     0.0000314692800834093     0.0000206799383350206     0.0000122401256812958     0.0000060756599965687     0.0000018008956736128     -0.0000010498509529619     -0.0000028681601639373     -0.0000039218048903525     -0.0000043997369043254     -0.0000044910264604161     -0.0000044141503387056     -0.0000043623381854628     -0.0000044141478720240     -0.0000044910219288598     -0.0000043997310914369     -0.0000039217988720883     -0.0000028681551305164     -0.0000010498480032531     0.0000018008956736127     0.0000060756564656840     0.0000122401183546577     0.0000206799273669164     0.0000314692662286595     0.0000441716984372612     0.0000603734941229421     0.0000780893941214526     0.0000919220385696943     0.0000971552782993832 
    0.0000485061763034094     0.0000465503343725153     0.0000411370112424785     0.0000334442557937667     0.0000249299405805011     0.0000168709988067172     0.0000100869986303021     0.0000049011990031241     0.0000012671746097869     -0.0000010498480032531     -0.0000023225908962363     -0.0000027846711731832     -0.0000026313144681818     -0.0000020679537604016     -0.0000013497445474039     -0.0000007611944226057     -0.0000005348862765101     -0.0000007611925693625     -0.0000013497412289763     -0.0000020679497295393     -0.0000026313107435630     -0.0000027846688441770     -0.0000023225908962363     -0.0000010498509529619     0.0000012671684492835     0.0000049011897210831     0.0000100869866828190     0.0000168709850782508     0.0000249299264160379     0.0000334442428939004     0.0000411370013830868     0.0000465503290267242     0.0000485061763034094 
    0.0000249569242382884     0.0000238241657354611     0.0000206809820229778     0.0000161961529033857     0.0000112156157466565     0.0000065068746532112     0.0000025938034405746     -0.0000002773186302700     -0.0000020719006751723     -0.0000028681551305164     -0.0000027846688441770     -0.0000019620569239273     -0.0000005896555198682     0.0000010606899908441     0.0000026383955205435     0.0000037761925074203     0.0000041910217922517     0.0000037761937291171     0.0000026383976153322     0.0000010606922877574     -0.0000005896539125095     -0.0000019620569239273     -0.0000027846711731832     -0.0000028681601639374     -0.0000020719084095220     -0.0000002773287282906     0.0000025937915997570     0.0000065068619520743     0.0000112156033040757     0.0000161961419888596     0.0000206809738861755     0.0000238241613849388     0.0000249569242382884 
    0.0000095505446948283     0.0000089310633965537     0.0000072061426322369     0.0000047328268044292     0.0000019818346501093     -0.0000005891656805115     -0.0000026281379270527     -0.0000039192605213507     -0.0000043600573877562     -0.0000039217988720883     -0.0000026313107435629     -0.0000005896539125095     0.0000019877936107492     0.0000047481086415743     0.0000072314141992308     0.0000089640572127571     0.0000095864506846720     0.0000089640578890638     0.0000072314152610041     0.0000047481095340058     0.0000019877936107492     -0.0000005896555198682     -0.0000026313144681818     -0.0000039218048903525     -0.0000043600655254660     -0.0000039192703201503     -0.0000026281487321403     -0.0000005891767071088     0.0000019818242701183     0.0000047328179673292     0.0000072061361758167     0.0000089310599835817     0.0000095505446948283 
    -0.0000001034896269149     -0.0000004376317941121     -0.0000013682908644913     -0.0000026973680190603     -0.0000041466971437348     -0.0000054186473319304     -0.0000062500019997763     -0.0000064400632106300     -0.0000058509461655649     -0.0000043997310914369     -0.0000020679497295393     0.0000010606922877574     0.0000047481095340058     0.0000085719180298511     0.0000119601938275741     0.0000143085185097807     0.0000151500289041386     0.0000143085187981772     0.0000119601941819953     0.0000085719180298511     0.0000047481086415743     0.0000010606899908441     -0.0000020679537604016     -0.0000043997369043254     -0.0000058509535217484     -0.0000064400716537125     -0.0000062500109501019     -0.0000054186561635525     -0.0000041467052299798     -0.0000026973747598838     -0.0000013682957200151     -0.0000004376343405979     -0.0000001034896269149 
    -0.0000060687036897927     -0.0000062518217533970     -0.0000067562649663944     -0.0000074535923380114     -0.0000081517125144618     -0.0000086276412903092     -0.0000086642923729830     -0.0000080764772623020     -0.0000067194037706067     -0.0000044910219288598     -0.0000013497412289763     0.0000026383976153322     0.0000072314152610041     0.0000119601941819953     0.0000161517287070416     0.0000190646783500398     0.0000201106762001318     0.0000190646784245971     0.0000161517287070416     0.0000119601938275741     0.0000072314141992308     0.0000026383955205435     -0.0000013497445474039     -0.0000044910264604161     -0.0000067194093042536     -0.0000080764834418282     -0.0000086642987728652     -0.0000086276474785773     -0.0000081517180861146     -0.0000074535969246000     -0.0000067562682431853     -0.0000062518234643686     -0.0000060687036897927 
    -0.0000094338684870793     -0.0000095417352671773     -0.0000098303133300491     -0.0000101972781843863     -0.0000104844526973604     -0.0000105015845231932     -0.0000100569394441820     -0.0000089811061333565     -0.0000071355077568796     -0.0000044141478720240     -0.0000007611925693625     0.0000037761937291172     0.0000089640578890638     0.0000143085187981772     0.0000190646784245971     0.0000223841493841087     0.0000235792271015995     0.0000223841493841087     0.0000190646783500398     0.0000143085185097807     0.0000089640572127571     0.0000037761925074204     -0.0000007611944226057     -0.0000044141503387056     -0.0000071355107163571     -0.0000089811093928477     -0.0000100569427802137     -0.0000105015877160174     -0.0000104844555481254     -0.0000101972805170194     -0.0000098303149903851     -0.0000095417361325277     -0.0000094338684870793 
    -0.0000105408640071569     -0.0000106253564561680     -0.0000108461694592720     -0.0000111073637915165     -0.0000112595939819999     -0.0000111221688027427     -0.0000105121683525804     -0.0000092671624677291     -0.0000072526533381205     -0.0000043623381854628     -0.0000005348862765101     0.0000041910217922517     0.0000095864506846720     0.0000151500289041386     0.0000201106762001318     0.0000235792271015995     0.0000248293292432563     0.0000235792271015995     0.0000201106762001318     0.0000151500289041387     0.0000095864506846720     0.0000041910217922517     -0.0000005348862765101     -0.0000043623381854628     -0.0000072526533381205     -0.0000092671624677291     -0.0000105121683525804     -0.0000111221688027427     -0.0000112595939819999     -0.0000111073637915165     -0.0000108461694592720     -0.0000106253564561680     -0.0000105408640071569 
    -0.0000094338684870793     -0.0000095417361325277     -0.0000098303149903851     -0.0000101972805170194     -0.0000104844555481254     -0.0000105015877160173     -0.0000100569427802136     -0.0000089811093928477     -0.0000071355107163570     -0.0000044141503387056     -0.0000007611944226057     0.0000037761925074204     0.0000089640572127571     0.0000143085185097807     0.0000190646783500398     0.0000223841493841087     0.0000235792271015995     0.0000223841493841087     0.0000190646784245971     0.0000143085187981772     0.0000089640578890638     0.0000037761937291172     -0.0000007611925693625     -0.0000044141478720240     -0.0000071355077568796     -0.0000089811061333565     -0.0000100569394441820     -0.0000105015845231932     -0.0000104844526973604     -0.0000101972781843864     -0.0000098303133300491     -0.0000095417352671773     -0.0000094338684870793 
    -0.0000060687036897927     -0.0000062518234643686     -0.0000067562682431852     -0.0000074535969246000     -0.0000081517180861145     -0.0000086276474785772     -0.0000086642987728652     -0.0000080764834418281     -0.0000067194093042536     -0.0000044910264604161     -0.0000013497445474039     0.0000026383955205435     0.0000072314141992308     0.0000119601938275741     0.0000161517287070416     0.0000190646784245971     0.0000201106762001318     0.0000190646783500398     0.0000161517287070416     0.0000119601941819953     0.0000072314152610041     0.0000026383976153322     -0.0000013497412289763     -0.0000044910219288598     -0.0000067194037706067     -0.0000080764772623020     -0.0000086642923729830     -0.0000086276412903092     -0.0000081517125144618     -0.0000074535923380113     -0.0000067562649663944     -0.0000062518217533970     -0.0000060687036897927 
    -0.0000001034896269149     -0.0000004376343405979     -0.0000013682957200151     -0.0000026973747598838     -0.0000041467052299798     -0.0000054186561635524     -0.0000062500109501018     -0.0000064400716537124     -0.0000058509535217484     -0.0000043997369043254     -0.0000020679537604016     0.0000010606899908441     0.0000047481086415743     0.0000085719180298511     0.0000119601941819953     0.0000143085187981772     0.0000151500289041386     0.0000143085185097807     0.0000119601938275741     0.0000085719180298511     0.0000047481095340058     0.0000010606922877574     -0.0000020679497295393     -0.0000043997310914369     -0.0000058509461655649     -0.0000064400632106300     -0.0000062500019997763     -0.0000054186473319304     -0.0000041466971437348     -0.0000026973680190603     -0.0000013682908644913     -0.0000004376317941121     -0.0000001034896269149 
    0.0000095505446948283     0.0000089310599835817     0.0000072061361758167     0.0000047328179673292     0.0000019818242701183     -0.0000005891767071088     -0.0000026281487321403     -0.0000039192703201503     -0.0000043600655254659     -0.0000039218048903525     -0.0000026313144681817     -0.0000005896555198682     0.0000019877936107492     0.0000047481095340058     0.0000072314152610041     0.0000089640578890638     0.0000095864506846720     0.0000089640572127571     0.0000072314141992308     0.0000047481086415743     0.0000019877936107492     -0.0000005896539125095     -0.0000026313107435630     -0.0000039217988720883     -0.0000043600573877562     -0.0000039192605213507     -0.0000026281379270527     -0.0000005891656805115     0.0000019818346501093     0.0000047328268044292     0.0000072061426322369     0.0000089310633965537     0.0000095505446948283 
    0.0000249569242382884     0.0000238241613849388     0.0000206809738861755     0.0000161961419888596     0.0000112156033040758     0.0000065068619520743     0.0000025937915997570     -0.0000002773287282906     -0.0000020719084095219     -0.0000028681601639374     -0.0000027846711731832     -0.0000019620569239273     -0.0000005896539125095     0.0000010606922877574     0.0000026383976153322     0.0000037761937291171     0.0000041910217922517     0.0000037761925074203     0.0000026383955205435     0.0000010606899908441     -0.0000005896555198683     -0.0000019620569239273     -0.0000027846688441770     -0.0000028681551305164     -0.0000020719006751723     -0.0000002773186302700     0.0000025938034405746     0.0000065068746532112     0.0000112156157466565     0.0000161961529033857     0.0000206809820229778     0.0000238241657354611     0.0000249569242382884 
    0.0000485061763034094     0.0000465503290267242     0.0000411370013830868     0.0000334442428939004     0.0000249299264160379     0.0000168709850782508     0.0000100869866828190     0.0000049011897210831     0.0000012671684492835     -0.0000010498509529619     -0.0000023225908962363     -0.0000027846688441770     -0.0000026313107435630     -0.0000020679497295393     -0.0000013497412289763     -0.0000007611925693625     -0.0000005348862765101     -0.0000007611944226057     -0.0000013497445474039     -0.0000020679537604016     -0.0000026313144681818     -0.0000027846711731832     -0.0000023225908962363     -0.0000010498480032531     0.0000012671746097869     0.0000049011990031240     0.0000100869986303021     0.0000168709988067172     0.0000249299405805011     0.0000334442557937667     0.0000411370112424784     0.0000465503343725153     0.0000485061763034094 
    0.0000971552782993832     0.0000919220385696943     0.0000780893941214526     0.0000603734941229421     0.0000441716984372612     0.0000314692662286595     0.0000206799273669164     0.0000122401183546578     0.0000060756564656840     0.0000018008956736127     -0.0000010498480032531     -0.0000028681551305164     -0.0000039217988720883     -0.0000043997310914369     -0.0000044910219288598     -0.0000044141478720240     -0.0000043623381854628     -0.0000044141503387056     -0.0000044910264604161     -0.0000043997369043254     -0.0000039218048903525     -0.0000028681601639374     -0.0000010498509529619     0.0000018008956736127     0.0000060756599965687     0.0000122401256812958     0.0000206799383350206     0.0000314692800834093     0.0000441717136892100     0.0000603735086433979     0.0000780894055419594     0.0000919220448613411     0.0000971552782993832 
    0.0001926540595948235     0.0001826738356759583     0.0001556909743510953     0.0001193230627240026     0.0000827676796293106     0.0000534765861836149     0.0000349549022909244     0.0000224313361592266     0.0000129315194459776     0.0000060756599965687     0.0000012671746097869     -0.0000020719006751723     -0.0000043600573877562     -0.0000058509461655650     -0.0000067194037706067     -0.0000071355077568796     -0.0000072526533381205     -0.0000071355107163571     -0.0000067194093042536     -0.0000058509535217484     -0.0000043600655254660     -0.0000020719084095219     0.0000012671684492834     0.0000060756564656839     0.0000129315194459776     0.0000224313403719538     0.0000349549109853240     0.0000534765988919035     0.0000827676948691890     0.0001193230780395641     0.0001556909868099714     0.0001826738426682507     0.0001926540595948235 
    0.0003286022994377889     0.0003132796264654597     0.0002713317700148761     0.0002131842839727412     0.0001517110227358796     0.0000980441410604090     0.0000588933454371481     0.0000359415475555796     0.0000224313403719537     0.0000122401256812957     0.0000049011990031240     -0.0000002773186302700     -0.0000039192605213507     -0.0000064400632106300     -0.0000080764772623020     -0.0000089811061333566     -0.0000092671624677292     -0.0000089811093928478     -0.0000080764834418282     -0.0000064400716537125     -0.0000039192703201503     -0.0000002773287282906     0.0000049011897210831     0.0000122401183546577     0.0000224313361592266     0.0000359415475555796     0.0000588933504202246     0.0000980441510043838     0.0001517110363793003     0.0002131842987452692     0.0002713317825712451     0.0003132796336816260     0.0003286022994377889 
    0.0004933560155536359     0.0004727865319797047     0.0004160458765902446     0.0003359843498559139     0.0002484958693355023     0.0001676861312521155     0.0001030572711618148     0.0000588933504202246     0.0000349549109853240     0.0000206799383350206     0.0000100869986303021     0.0000025938034405746     -0.0000026281379270527     -0.0000062500019997763     -0.0000086642923729829     -0.0000100569394441820     -0.0000105121683525804     -0.0000100569427802136     -0.0000086642987728651     -0.0000062500109501018     -0.0000026281487321402     0.0000025937915997570     0.0000100869866828191     0.0000206799273669164     0.0000349549022909244     0.0000588933454371481     0.0001030572711618149     0.0001676861367713931     0.0002484958795648304     0.0003359843624090203     0.0004160458879823429     0.0004727865387507314     0.0004933560155536359 
    0.0006753109311934144     0.0006499270290219565     0.0005796293086914943     0.0004793934320348684     0.0003674140410023510     0.0002597151367703270     0.0001676861367713931     0.0000980441510043838     0.0000534765988919035     0.0000314692800834093     0.0000168709988067172     0.0000065068746532112     -0.0000005891656805115     -0.0000054186473319304     -0.0000086276412903092     -0.0000105015845231932     -0.0000111221688027427     -0.0000105015877160174     -0.0000086276474785772     -0.0000054186561635524     -0.0000005891767071088     0.0000065068619520743     0.0000168709850782508     0.0000314692662286595     0.0000534765861836149     0.0000980441410604091     0.0001676861312521157     0.0002597151367703271     0.0003674140463278757     0.0004793934407923593     0.0005796293176167559     0.0006499270346161437     0.0006753109311934144 
    0.0008651339557451574     0.0008352842523500925     0.0007525457293053260     0.0006340624844344229     0.0004999955548907745     0.0003674140463278757     0.0002484958795648304     0.0001517110363793003     0.0000827676948691890     0.0000441717136892100     0.0000249299405805011     0.0000112156157466565     0.0000019818346501093     -0.0000041466971437348     -0.0000081517125144619     -0.0000104844526973605     -0.0000112595939819999     -0.0000104844555481254     -0.0000081517180861146     -0.0000041467052299798     0.0000019818242701182     0.0000112156033040757     0.0000249299264160379     0.0000441716984372612     0.0000827676796293106     0.0001517110227358797     0.0002484958693355023     0.0003674140410023510     0.0004999955548907745     0.0006340624885649357     0.0007525457348807931     0.0008352842562074408     0.0008651339557451574 
    0.0010516798217067504     0.0010175625666670315     0.0009231040144931801     0.0007878709827584681     0.0006340624885649356     0.0004793934407923593     0.0003359843624090204     0.0002131842987452692     0.0001193230780395641     0.0000603735086433978     0.0000334442557937667     0.0000161961529033857     0.0000047328268044292     -0.0000026973680190603     -0.0000074535923380113     -0.0000101972781843863     -0.0000111073637915164     -0.0000101972805170194     -0.0000074535969246000     -0.0000026973747598838     0.0000047328179673292     0.0000161961419888596     0.0000334442428939005     0.0000603734941229422     0.0001193230627240026     0.0002131842839727412     0.0003359843498559139     0.0004793934320348683     0.0006340624844344229     0.0007878709827584681     0.0009231040167417951     0.0010175625686745830     0.0010516798217067504 
    0.0012159267108545382     0.0011779516886086929     0.0010730039271835629     0.0009231040167417951     0.0007525457348807932     0.0005796293176167559     0.0004160458879823430     0.0002713317825712450     0.0001556909868099713     0.0000780894055419593     0.0000411370112424784     0.0000206809820229778     0.0000072061426322369     -0.0000013682908644914     -0.0000067562649663944     -0.0000098303133300491     -0.0000108461694592720     -0.0000098303149903851     -0.0000067562682431852     -0.0000013682957200151     0.0000072061361758167     0.0000206809738861755     0.0000411370013830868     0.0000780893941214526     0.0001556909743510953     0.0002713317700148761     0.0004160458765902448     0.0005796293086914943     0.0007525457293053258     0.0009231040144931801     0.0010730039271835629     0.0011779516892187832     0.0012159267108545382 
    0.0013312709215197518     0.0012904910229901852     0.0011779516892187830     0.0010175625686745828     0.0008352842562074408     0.0006499270346161438     0.0004727865387507314     0.0003132796336816260     0.0001826738426682506     0.0000919220448613410     0.0000465503343725153     0.0000238241657354611     0.0000089310633965537     -0.0000004376317941121     -0.0000062518217533971     -0.0000095417352671774     -0.0000106253564561681     -0.0000095417361325278     -0.0000062518234643687     -0.0000004376343405980     0.0000089310599835817     0.0000238241613849388     0.0000465503290267242     0.0000919220385696943     0.0001826738356759583     0.0003132796264654597     0.0004727865319797047     0.0006499270290219565     0.0008352842523500925     0.0010175625666670311     0.0011779516886086933     0.0012904910229901852     0.0013312709215197518 
    0.0013730886589679815     0.0013312709215197514     0.0012159267108545384     0.0010516798217067502     0.0008651339557451574     0.0006753109311934143     0.0004933560155536361     0.0003286022994377889     0.0001926540595948235     0.0000971552782993832     0.0000485061763034094     0.0000249569242382883     0.0000095505446948283     -0.0000001034896269149     -0.0000060687036897928     -0.0000094338684870793     -0.0000105408640071569     -0.0000094338684870794     -0.0000060687036897928     -0.0000001034896269149     0.0000095505446948282     0.0000249569242382883     0.0000485061763034094     0.0000971552782993832     0.0001926540595948235     0.0003286022994377889     0.0004933560155536361     0.0006753109311934143     0.0008651339557451574     0.0010516798217067502     0.0012159267108545384     0.0013312709215197514     0.0013730886589679815 
    0.0016121530620089681     0.0015652828026568514     0.0014367836610028782     0.0012556911633251901     0.0010518348084505771     0.0008436363267436556     0.0006387099514440643     0.0004438751128621760     0.0002725943827000865     0.0001423540863840660     0.0000661214908530744     0.0000346444199419852     0.0000151209593966398     0.0000031603407182415     -0.0000040174902885808     -0.0000079782129507702     -0.0000092682064010082     -0.0000079782129507702     -0.0000040174902885808     0.0000031603407182415     0.0000151209593966398     0.0000346444199419852     0.0000661214908530744     0.0001423540863840660     0.0002725943827000866     0.0004438751128621761     0.0006387099514440643     0.0008436363267436555     0.0010518348084505769     0.0012556911633251901     0.0014367836610028782     0.0015652828026568514     0.0016121530620089681 
    0.0015652828026568519     0.0015195904254803143     0.0013942224170766990     0.0012172794143712265     0.0010177596077668581     0.0008138844005076242     0.0006136605880108288     0.0004242984822165452     0.0002590607613599876     0.0001346167177105893     0.0000629907962908028     0.0000331294235013086     0.0000142834426802333     0.0000026968791349095     -0.0000042887518918669     -0.0000081577311138412     -0.0000094200979962845     -0.0000081577303961082     -0.0000042887504756995     0.0000026968812436401     0.0000142834455248162     0.0000331294271751360     0.0000629908008818677     0.0001346167232010825     0.0002590607675278679     0.0004242984885972318     0.0006136605939558750     0.0008138844053459226     0.0010177596110383035     0.0012172794160403362     0.0013942224175756079     0.0015195904254803141     0.0015652828026568519 
    0.0014367836610028782     0.0013942224175756074     0.0012771747559783514     0.0011112771384434743     0.0009234071275674825     0.0007313863544125822     0.0005443379142858440     0.0003704345594214421     0.0002222016230172569     0.0001139146235604392     0.0000549565314133662     0.0000289262533448559     0.0000119457414286350     0.0000013940039190290     -0.0000050542225391743     -0.0000086629339887423     -0.0000098460915645678     -0.0000086629326271079     -0.0000050542198569578     0.0000013940078968856     0.0000119457467557106     0.0000289262601540664     0.0000549565398176173     0.0001139146334732956     0.0002222016339768995     0.0003704345705266949     0.0005443379243220388     0.0007313863621801616     0.0009234071323361860     0.0011112771403314957     0.0012771747559783514     0.0013942224170766986     0.0014367836610028782 
    0.0012556911633251899     0.0012172794160403362     0.0011112771403314957     0.0009601691889873259     0.0007882940449377708     0.0006132595124997591     0.0004457581772365152     0.0002949254995130622     0.0001717141203227016     0.0000866671437422626     0.0000447359716212912     0.0000229249941484259     0.0000085713166736482     -0.0000005082447575313     -0.0000061743714710212     -0.0000093928939062538     -0.0000104548160954909     -0.0000093928920208164     -0.0000061743677700736     -0.0000005082393121120     0.0000085713238668513     0.0000229250031674959     0.0000447359824972017     0.0000866671562399258     0.0001717141337277340     0.0002949255125668977     0.0004457581883363428     0.0006132595201833525     0.0007882940485124788     0.0009601691889873257     0.0011112771384434745     0.0012172794143712265     0.0012556911633251899 
    0.0010518348084505769     0.0010177596110383037     0.0009234071323361860     0.0007882940485124788     0.0006345640664933749     0.0004798976369966591     0.0003364150996591241     0.0002134951282313326     0.0001195104595061682     0.0000604724921061980     0.0000335052377533712     0.0000162363451602411     0.0000047607114263086     -0.0000026766820929289     -0.0000074370948759350     -0.0000101830128926227     -0.0000110938046189854     -0.0000101830106187642     -0.0000074370904391905     -0.0000026766756469285     0.0000047607197620431     0.0000162363553039282     0.0000335052495437720     0.0000604725050912078     0.0001195104727420711     0.0002134951402460818     0.0003364151087196787     0.0004798976417024775     0.0006345640664933749     0.0007882940449377707     0.0009234071275674826     0.0010177596077668581     0.0010518348084505769 
    0.0008436363267436556     0.0008138844053459225     0.0007313863621801617     0.0006132595201833521     0.0004798976417024775     0.0003488731619121865     0.0002327955288942563     0.0001400586693274112     0.0000756746033045748     0.0000411393490025991     0.0000228465240739052     0.0000098475615389351     0.0000010829812901545     -0.0000047608392563624     -0.0000085928388060223     -0.0000108259565196140     -0.0000115674184338216     -0.0000108259539967154     -0.0000085928339245911     -0.0000047608322855301     0.0000010829900488474     0.0000098475717673948     0.0000228465353529733     0.0000411393606492096     0.0000756746142234709     0.0001400586780207808     0.0002327955337708398     0.0003488731619121865     0.0004798976369966591     0.0006132595124997591     0.0007313863544125822     0.0008138844005076240     0.0008436363267436556 
    0.0006387099514440644     0.0006136605939558749     0.0005443379243220388     0.0004457581883363428     0.0003364151087196787     0.0002327955337708398     0.0001464712878421106     0.0000836425129316279     0.0000458258707434313     0.0000271377467076513     0.0000138037436800475     0.0000044120631565087     -0.0000020406545542256     -0.0000064598484163612     -0.0000094007538800695     -0.0000111114046847062     -0.0000116754401231249     -0.0000111114020648544     -0.0000094007488622970     -0.0000064598413975876     -0.0000020406460387765     0.0000044120725963528     0.0000138037533747979     0.0000271377558007514     0.0000458258781115151     0.0000836425172367337     0.0001464712878421107     0.0002327955288942563     0.0003364150996591241     0.0004457581772365153     0.0005443379142858440     0.0006136605880108288     0.0006387099514440644 
    0.0004438751128621761     0.0004242984885972319     0.0003704345705266949     0.0002949255125668977     0.0002134951402460818     0.0001400586780207808     0.0000836425172367336     0.0000476008301433858     0.0000289987932171373     0.0000161016311045030     0.0000067724867970240     0.0000002156593082766     -0.0000043716986830726     -0.0000075599996970376     -0.0000096693255064814     -0.0000108685515202575     -0.0000112560347467615     -0.0000108685489771057     -0.0000096693206898569     -0.0000075599931129866     -0.0000043716910099421     0.0000002156672901961     0.0000067724942424703     0.0000161016370917940     0.0000289987967299952     0.0000476008301433859     0.0000836425129316280     0.0001400586693274112     0.0002134951282313327     0.0002949254995130623     0.0003704345594214421     0.0004242984822165453     0.0004438751128621761 
    0.0002725943827000866     0.0002590607675278678     0.0002222016339768994     0.0001717141337277339     0.0001195104727420710     0.0000756746142234709     0.0000458258781115150     0.0000289987967299951     0.0000168141764769772     0.0000079412954652514     0.0000016696101671205     -0.0000027338992158015     -0.0000058250247878448     -0.0000079402269197701     -0.0000092774368993014     -0.0000099911352586293     -0.0000102108982099092     -0.0000099911329762019     -0.0000092774326292367     -0.0000079402212313785     -0.0000058250184644708     -0.0000027338931547590     0.0000016696150541756     0.0000079412983095119     0.0000168141764769773     0.0000289987932171374     0.0000458258707434314     0.0000756746033045748     0.0001195104595061682     0.0001717141203227017     0.0002222016230172569     0.0002590607613599876     0.0002725943827000866 
    0.0001423540863840660     0.0001346167232010825     0.0001139146334732955     0.0000866671562399258     0.0000604725050912077     0.0000411393606492096     0.0000271377558007514     0.0000161016370917940     0.0000079412983095119     0.0000021649753610931     -0.0000018349567417327     -0.0000045791037914630     -0.0000064172938908833     -0.0000075617550374695     -0.0000081779400876066     -0.0000084407899638444     -0.0000085068274768241     -0.0000084407881013389     -0.0000081779366542765     -0.0000075617506083966     -0.0000064172892695112     -0.0000045790998885022     -0.0000018349544281501     0.0000021649753610931     0.0000079412954652515     0.0000161016311045030     0.0000271377467076514     0.0000411393490025992     0.0000604724921061980     0.0000866671437422626     0.0001139146235604392     0.0001346167177105893     0.0001423540863840660 
    0.0000661214908530744     0.0000629908008818677     0.0000549565398176173     0.0000447359824972017     0.0000335052495437720     0.0000228465353529732     0.0000138037533747980     0.0000067724942424702     0.0000016696150541756     -0.0000018349544281501     -0.0000041224723998215     -0.0000055108609309187     -0.0000062297258003104     -0.0000064619805641469     -0.0000063979204472546     -0.0000062435911041456     -0.0000061697736378500     -0.0000062435897519211     -0.0000063979180064395     -0.0000064619775646100     -0.0000062297229910940     -0.0000055108591499057     -0.0000041224723998215     -0.0000018349567417327     0.0000016696101671205     0.0000067724867970241     0.0000138037436800476     0.0000228465240739053     0.0000335052377533712     0.0000447359716212912     0.0000549565314133662     0.0000629907962908028     0.0000661214908530744 
    0.0000346444199419852     0.0000331294271751360     0.0000289262601540665     0.0000229250031674959     0.0000162363553039282     0.0000098475717673948     0.0000044120725963528     0.0000002156672901961     -0.0000027338931547591     -0.0000045790998885022     -0.0000055108591499058     -0.0000057202171975551     -0.0000053989718061792     -0.0000047609583821944     -0.0000040478295617711     -0.0000034987248275276     -0.0000032933512261089     -0.0000034987239792621     -0.0000040478280853535     -0.0000047609567295140     -0.0000053989706235453     -0.0000057202171975551     -0.0000055108609309187     -0.0000045791037914630     -0.0000027338992158014     0.0000002156593082767     0.0000044120631565088     0.0000098475615389352     0.0000162363451602411     0.0000229249941484259     0.0000289262533448559     0.0000331294235013086     0.0000346444199419852 
    0.0000151209593966398     0.0000142834455248162     0.0000119457467557106     0.0000085713238668513     0.0000047607197620431     0.0000010829900488474     -0.0000020406460387765     -0.0000043716910099422     -0.0000058250184644709     -0.0000064172892695112     -0.0000062297229910940     -0.0000053989706235453     -0.0000041252283718317     -0.0000026720967960102     -0.0000013384167562610     -0.0000004040117720706     -0.0000000684278641897     -0.0000004040113323353     -0.0000013384160485060     -0.0000026720961810065     -0.0000041252283718317     -0.0000053989718061792     -0.0000062297258003105     -0.0000064172938908833     -0.0000058250247878448     -0.0000043716986830725     -0.0000020406545542255     0.0000010829812901545     0.0000047607114263085     0.0000085713166736482     0.0000119457414286351     0.0000142834426802333     0.0000151209593966398 
    0.0000031603407182415     0.0000026968812436401     0.0000013940078968856     -0.0000005082393121120     -0.0000026766756469285     -0.0000047608322855301     -0.0000064598413975876     -0.0000075599931129866     -0.0000079402212313785     -0.0000075617506083966     -0.0000064619775646100     -0.0000047609567295140     -0.0000026720961810065     -0.0000004969121878966     0.0000014125413726073     0.0000027209783614593     0.0000031865350299800     0.0000027209785347359     0.0000014125415938022     -0.0000004969121878966     -0.0000026720967960102     -0.0000047609583821944     -0.0000064619805641469     -0.0000075617550374694     -0.0000079402269197701     -0.0000075599996970375     -0.0000064598484163611     -0.0000047608392563624     -0.0000026766820929289     -0.0000005082447575312     0.0000013940039190291     0.0000026968791349096     0.0000031603407182415 
    -0.0000040174902885808     -0.0000042887504756995     -0.0000050542198569578     -0.0000061743677700736     -0.0000074370904391906     -0.0000085928339245911     -0.0000094007488622970     -0.0000096693206898569     -0.0000092774326292368     -0.0000081779366542766     -0.0000063979180064395     -0.0000040478280853535     -0.0000013384160485060     0.0000014125415938022     0.0000038087419812783     0.0000054498852177131     0.0000060344360851096     0.0000054498852589599     0.0000038087419812783     0.0000014125413726073     -0.0000013384167562610     -0.0000040478295617711     -0.0000063979204472545     -0.0000081779400876066     -0.0000092774368993015     -0.0000096693255064814     -0.0000094007538800694     -0.0000085928388060223     -0.0000074370948759350     -0.0000061743714710211     -0.0000050542225391743     -0.0000042887518918669     -0.0000040174902885808 
    -0.0000079782129507702     -0.0000081577303961082     -0.0000086629326271078     -0.0000093928920208164     -0.0000101830106187642     -0.0000108259539967154     -0.0000111114020648544     -0.0000108685489771057     -0.0000099911329762019     -0.0000084407881013389     -0.0000062435897519211     -0.0000034987239792621     -0.0000004040113323353     0.0000027209785347360     0.0000054498852589599     0.0000073277844265727     0.0000079988519728538     0.0000073277844265727     0.0000054498852177131     0.0000027209783614593     -0.0000004040117720706     -0.0000034987248275276     -0.0000062435911041456     -0.0000084407899638444     -0.0000099911352586293     -0.0000108685515202575     -0.0000111114046847061     -0.0000108259565196140     -0.0000101830128926227     -0.0000093928939062538     -0.0000086629339887423     -0.0000081577311138412     -0.0000079782129507702 
    -0.0000092682064010082     -0.0000094200979962845     -0.0000098460915645677     -0.0000104548160954908     -0.0000110938046189854     -0.0000115674184338216     -0.0000116754401231248     -0.0000112560347467615     -0.0000102108982099092     -0.0000085068274768241     -0.0000061697736378500     -0.0000032933512261089     -0.0000000684278641897     0.0000031865350299801     0.0000060344360851096     0.0000079988519728538     0.0000087018883231274     0.0000079988519728538     0.0000060344360851096     0.0000031865350299800     -0.0000000684278641897     -0.0000032933512261089     -0.0000061697736378500     -0.0000085068274768241     -0.0000102108982099091     -0.0000112560347467615     -0.0000116754401231248     -0.0000115674184338216     -0.0000110938046189854     -0.0000104548160954908     -0.0000098460915645677     -0.0000094200979962845     -0.0000092682064010082 
    -0.0000079782129507702     -0.0000081577311138412     -0.0000086629339887423     -0.0000093928939062538     -0.0000101830128926227     -0.0000108259565196140     -0.0000111114046847061     -0.0000108685515202575     -0.0000099911352586293     -0.0000084407899638444     -0.0000062435911041456     -0.0000034987248275276     -0.0000004040117720706     0.0000027209783614593     0.0000054498852177131     0.0000073277844265727     0.0000079988519728538     0.0000073277844265727     0.0000054498852589599     0.0000027209785347360     -0.0000004040113323353     -0.0000034987239792621     -0.0000062435897519211     -0.0000084407881013389     -0.0000099911329762019     -0.0000108685489771057     -0.0000111114020648543     -0.0000108259539967154     -0.0000101830106187642     -0.0000093928920208164     -0.0000086629326271078     -0.0000081577303961082     -0.0000079782129507702 
    -0.0000040174902885808     -0.0000042887518918669     -0.0000050542225391742     -0.0000061743714710211     -0.0000074370948759350     -0.0000085928388060223     -0.0000094007538800694     -0.0000096693255064814     -0.0000092774368993015     -0.0000081779400876066     -0.0000063979204472545     -0.0000040478295617711     -0.0000013384167562610     0.0000014125413726073     0.0000038087419812783     0.0000054498852589599     0.0000060344360851096     0.0000054498852177131     0.0000038087419812783     0.0000014125415938022     -0.0000013384160485060     -0.0000040478280853535     -0.0000063979180064395     -0.0000081779366542765     -0.0000092774326292367     -0.0000096693206898569     -0.0000094007488622970     -0.0000085928339245911     -0.0000074370904391905     -0.0000061743677700736     -0.0000050542198569578     -0.0000042887504756995     -0.0000040174902885808 
    0.0000031603407182415     0.0000026968791349095     0.0000013940039190291     -0.0000005082447575312     -0.0000026766820929289     -0.0000047608392563624     -0.0000064598484163611     -0.0000075599996970376     -0.0000079402269197701     -0.0000075617550374695     -0.0000064619805641469     -0.0000047609583821944     -0.0000026720967960102     -0.0000004969121878966     0.0000014125415938022     0.0000027209785347359     0.0000031865350299800     0.0000027209783614593     0.0000014125413726073     -0.0000004969121878966     -0.0000026720961810065     -0.0000047609567295140     -0.0000064619775646100     -0.0000075617506083966     -0.0000079402212313785     -0.0000075599931129866     -0.0000064598413975876     -0.0000047608322855300     -0.0000026766756469285     -0.0000005082393121120     0.0000013940078968856     0.0000026968812436401     0.0000031603407182415 
    0.0000151209593966399     0.0000142834426802334     0.0000119457414286351     0.0000085713166736482     0.0000047607114263085     0.0000010829812901545     -0.0000020406545542255     -0.0000043716986830725     -0.0000058250247878448     -0.0000064172938908833     -0.0000062297258003105     -0.0000053989718061792     -0.0000041252283718318     -0.0000026720961810065     -0.0000013384160485060     -0.0000004040113323353     -0.0000000684278641897     -0.0000004040117720706     -0.0000013384167562610     -0.0000026720967960102     -0.0000041252283718317     -0.0000053989706235453     -0.0000062297229910940     -0.0000064172892695112     -0.0000058250184644709     -0.0000043716910099422     -0.0000020406460387765     0.0000010829900488474     0.0000047607197620431     0.0000085713238668513     0.0000119457467557106     0.0000142834455248162     0.0000151209593966399 
    0.0000346444199419852     0.0000331294235013086     0.0000289262533448559     0.0000229249941484259     0.0000162363451602411     0.0000098475615389351     0.0000044120631565087     0.0000002156593082766     -0.0000027338992158015     -0.0000045791037914630     -0.0000055108609309187     -0.0000057202171975551     -0.0000053989706235453     -0.0000047609567295140     -0.0000040478280853535     -0.0000034987239792621     -0.0000032933512261089     -0.0000034987248275276     -0.0000040478295617711     -0.0000047609583821944     -0.0000053989718061791     -0.0000057202171975551     -0.0000055108591499058     -0.0000045790998885022     -0.0000027338931547591     0.0000002156672901961     0.0000044120725963528     0.0000098475717673948     0.0000162363553039282     0.0000229250031674959     0.0000289262601540665     0.0000331294271751360     0.0000346444199419852 
    0.0000661214908530744     0.0000629907962908028     0.0000549565314133662     0.0000447359716212912     0.0000335052377533712     0.0000228465240739053     0.0000138037436800476     0.0000067724867970241     0.0000016696101671205     -0.0000018349567417327     -0.0000041224723998215     -0.0000055108591499057     -0.0000062297229910940     -0.0000064619775646100     -0.0000063979180064395     -0.0000062435897519211     -0.0000061697736378501     -0.0000062435911041456     -0.0000063979204472546     -0.0000064619805641469     -0.0000062297258003104     -0.0000055108609309187     -0.0000041224723998215     -0.0000018349544281501     0.0000016696150541756     0.0000067724942424702     0.0000138037533747980     0.0000228465353529733     0.0000335052495437720     0.0000447359824972017     0.0000549565398176173     0.0000629908008818677     0.0000661214908530744 
    0.0001423540863840660     0.0001346167177105893     0.0001139146235604391     0.0000866671437422625     0.0000604724921061980     0.0000411393490025991     0.0000271377467076514     0.0000161016311045030     0.0000079412954652514     0.0000021649753610931     -0.0000018349544281501     -0.0000045790998885022     -0.0000064172892695112     -0.0000075617506083966     -0.0000081779366542766     -0.0000084407881013389     -0.0000085068274768241     -0.0000084407899638444     -0.0000081779400876066     -0.0000075617550374695     -0.0000064172938908833     -0.0000045791037914630     -0.0000018349567417327     0.0000021649753610931     0.0000079412983095119     0.0000161016370917940     0.0000271377558007514     0.0000411393606492096     0.0000604725050912077     0.0000866671562399258     0.0001139146334732956     0.0001346167232010825     0.0001423540863840660 
    0.0002725943827000866     0.0002590607613599876     0.0002222016230172569     0.0001717141203227016     0.0001195104595061682     0.0000756746033045748     0.0000458258707434313     0.0000289987932171373     0.0000168141764769773     0.0000079412983095119     0.0000016696150541756     -0.0000027338931547591     -0.0000058250184644709     -0.0000079402212313785     -0.0000092774326292367     -0.0000099911329762019     -0.0000102108982099092     -0.0000099911352586293     -0.0000092774368993015     -0.0000079402269197702     -0.0000058250247878448     -0.0000027338992158014     0.0000016696101671205     0.0000079412954652514     0.0000168141764769773     0.0000289987967299951     0.0000458258781115151     0.0000756746142234709     0.0001195104727420711     0.0001717141337277340     0.0002222016339768994     0.0002590607675278678     0.0002725943827000866 
    0.0004438751128621761     0.0004242984822165452     0.0003704345594214421     0.0002949254995130622     0.0002134951282313326     0.0001400586693274111     0.0000836425129316279     0.0000476008301433858     0.0000289987967299951     0.0000161016370917939     0.0000067724942424702     0.0000002156672901961     -0.0000043716910099422     -0.0000075599931129866     -0.0000096693206898569     -0.0000108685489771057     -0.0000112560347467615     -0.0000108685515202575     -0.0000096693255064814     -0.0000075599996970376     -0.0000043716986830725     0.0000002156593082766     0.0000067724867970240     0.0000161016311045030     0.0000289987932171373     0.0000476008301433858     0.0000836425172367336     0.0001400586780207808     0.0002134951402460818     0.0002949255125668977     0.0003704345705266949     0.0004242984885972319     0.0004438751128621761 
    0.0006387099514440644     0.0006136605880108288     0.0005443379142858440     0.0004457581772365152     0.0003364150996591241     0.0002327955288942563     0.0001464712878421105     0.0000836425172367336     0.0000458258781115150     0.0000271377558007514     0.0000138037533747979     0.0000044120725963528     -0.0000020406460387765     -0.0000064598413975876     -0.0000094007488622970     -0.0000111114020648544     -0.0000116754401231249     -0.0000111114046847062     -0.0000094007538800694     -0.0000064598484163611     -0.0000020406545542256     0.0000044120631565087     0.0000138037436800476     0.0000271377467076513     0.0000458258707434313     0.0000836425129316279     0.0001464712878421106     0.0002327955337708398     0.0003364151087196787     0.0004457581883363428     0.0005443379243220388     0.0006136605939558749     0.0006387099514440644 
    0.0008436363267436556     0.0008138844005076240     0.0007313863544125821     0.0006132595124997591     0.0004798976369966589     0.0003488731619121865     0.0002327955337708398     0.0001400586780207808     0.0000756746142234709     0.0000411393606492096     0.0000228465353529732     0.0000098475717673948     0.0000010829900488474     -0.0000047608322855301     -0.0000085928339245911     -0.0000108259539967154     -0.0000115674184338216     -0.0000108259565196140     -0.0000085928388060223     -0.0000047608392563624     0.0000010829812901545     0.0000098475615389351     0.0000228465240739053     0.0000411393490025991     0.0000756746033045748     0.0001400586693274112     0.0002327955288942564     0.0003488731619121865     0.0004798976417024775     0.0006132595201833521     0.0007313863621801617     0.0008138844053459223     0.0008436363267436556 
    0.0010518348084505769     0.0010177596077668581     0.0009234071275674826     0.0007882940449377707     0.0006345640664933749     0.0004798976417024775     0.0003364151087196787     0.0002134951402460817     0.0001195104727420711     0.0000604725050912077     0.0000335052495437720     0.0000162363553039282     0.0000047607197620431     -0.0000026766756469285     -0.0000074370904391905     -0.0000101830106187642     -0.0000110938046189854     -0.0000101830128926227     -0.0000074370948759350     -0.0000026766820929289     0.0000047607114263085     0.0000162363451602411     0.0000335052377533712     0.0000604724921061980     0.0001195104595061682     0.0002134951282313326     0.0003364150996591241     0.0004798976369966591     0.0006345640664933749     0.0007882940485124788     0.0009234071323361860     0.0010177596110383037     0.0010518348084505769 
    0.0012556911633251899     0.0012172794143712265     0.0011112771384434747     0.0009601691889873259     0.0007882940485124790     0.0006132595201833525     0.0004457581883363428     0.0002949255125668976     0.0001717141337277340     0.0000866671562399257     0.0000447359824972017     0.0000229250031674959     0.0000085713238668513     -0.0000005082393121120     -0.0000061743677700736     -0.0000093928920208164     -0.0000104548160954908     -0.0000093928939062538     -0.0000061743714710211     -0.0000005082447575312     0.0000085713166736482     0.0000229249941484260     0.0000447359716212912     0.0000866671437422626     0.0001717141203227017     0.0002949254995130622     0.0004457581772365152     0.0006132595124997589     0.0007882940449377708     0.0009601691889873260     0.0011112771403314957     0.0012172794160403362     0.0012556911633251899 
    0.0014367836610028782     0.0013942224170766986     0.0012771747559783514     0.0011112771403314957     0.0009234071323361860     0.0007313863621801614     0.0005443379243220387     0.0003704345705266949     0.0002222016339768994     0.0001139146334732955     0.0000549565398176173     0.0000289262601540664     0.0000119457467557106     0.0000013940078968856     -0.0000050542198569578     -0.0000086629326271078     -0.0000098460915645677     -0.0000086629339887423     -0.0000050542225391743     0.0000013940039190291     0.0000119457414286351     0.0000289262533448559     0.0000549565314133662     0.0001139146235604392     0.0002222016230172570     0.0003704345594214422     0.0005443379142858440     0.0007313863544125821     0.0009234071275674825     0.0011112771384434743     0.0012771747559783514     0.0013942224175756074     0.0014367836610028782 
    0.0015652828026568519     0.0015195904254803141     0.0013942224175756079     0.0012172794160403362     0.0010177596110383037     0.0008138844053459226     0.0006136605939558750     0.0004242984885972318     0.0002590607675278678     0.0001346167232010825     0.0000629908008818677     0.0000331294271751359     0.0000142834455248162     0.0000026968812436401     -0.0000042887504756995     -0.0000081577303961082     -0.0000094200979962845     -0.0000081577311138412     -0.0000042887518918669     0.0000026968791349096     0.0000142834426802334     0.0000331294235013086     0.0000629907962908028     0.0001346167177105894     0.0002590607613599876     0.0004242984822165452     0.0006136605880108288     0.0008138844005076242     0.0010177596077668581     0.0012172794143712265     0.0013942224170766990     0.0015195904254803143     0.0015652828026568519 
    0.0016121530620089681     0.0015652828026568514     0.0014367836610028782     0.0012556911633251901     0.0010518348084505771     0.0008436363267436556     0.0006387099514440643     0.0004438751128621760     0.0002725943827000865     0.0001423540863840660     0.0000661214908530744     0.0000346444199419852     0.0000151209593966398     0.0000031603407182415     -0.0000040174902885808     -0.0000079782129507702     -0.0000092682064010082     -0.0000079782129507702     -0.0000040174902885808     0.0000031603407182415     0.0000151209593966398     0.0000346444199419852     0.0000661214908530744     0.0001423540863840660     0.0002725943827000866     0.0004438751128621761     0.0006387099514440643     0.0008436363267436555     0.0010518348084505769     0.0012556911633251901     0.0014367836610028782     0.0015652828026568514     0.0016121530620089681 
    0.0018293151336774309     0.0017772569939833224     0.0016352402746363565     0.0014369940587049275     0.0012162782162151965     0.0009917987225487707     0.0007680349594501562     0.0005487079765431019     0.0003477935355534622     0.0001872641563431081     0.0000857377112021330     0.0000434085386984044     0.0000200879515367851     0.0000060161081989788     -0.0000022444309444984     -0.0000067178166082896     -0.0000081610691495206     -0.0000067178166082896     -0.0000022444309444984     0.0000060161081989788     0.0000200879515367851     0.0000434085386984044     0.0000857377112021330     0.0001872641563431081     0.0003477935355534622     0.0005487079765431019     0.0007680349594501562     0.0009917987225487705     0.0012162782162151965     0.0014369940587049275     0.0016352402746363565     0.0017772569939833224     0.0018293151336774309 
    0.0017772569939833226     0.0017265515739254998     0.0015881015748363523     0.0013944794964978720     0.0011783900089752130     0.0009582753550350618     0.0007391731173607295     0.0005254737342556732     0.0003311257547338708     0.0001772292524968602     0.0000812446587324745     0.0000415358125823561     0.0000190468730431427     0.0000054341608732682     -0.0000025938057679236     -0.0000069588782235043     -0.0000083701559322448     -0.0000069588777062685     -0.0000025938047483982     0.0000054341623926170     0.0000190468751025931     0.0000415358152663845     0.0000812446621237438     0.0001772292565910688     0.0003311257593546121     0.0005254737390238953     0.0007391731217571928     0.0009582753585518624     0.0011783900113033819     0.0013944794976607268     0.0015881015751777932     0.0017265515739254998     0.0017772569939833226 
    0.0016352402746363565     0.0015881015751777932     0.0014590344811876571     0.0012775504129902517     0.0010736618355861431     0.0008653078131512784     0.0006591593456027935     0.0004613493551629541     0.0002855272176621436     0.0001501913691176160     0.0000695301217162611     0.0000363497391749304     0.0000161469958956130     0.0000037999740956870     -0.0000035816706504737     -0.0000076420500846092     -0.0000089625100663918     -0.0000076420491123261     -0.0000035816687368140     0.0000037999769372489     0.0000161469997223566     0.0000363497441168804     0.0000695301278936326     0.0001501913764883512     0.0002855272258688155     0.0004613493634798593     0.0006591593530612269     0.0008653078188394295     0.0010736618390121090     0.0012775504143198902     0.0014590344811876573     0.0015881015748363523     0.0016352402746363565 
    0.0014369940587049272     0.0013944794976607265     0.0012775504143198897     0.0011117890961018586     0.0009240118791749519     0.0007320001324312159     0.0005448734354100490     0.0003708342202884401     0.0002224529577897623     0.0001140462859061385     0.0000550225029597702     0.0000289671433399930     0.0000119724861888747     0.0000014129324623843     -0.0000050395940107809     -0.0000086505065265039     -0.0000098343485408815     -0.0000086505051964673     -0.0000050395914016803     0.0000014129363077119     0.0000119724913009508     0.0000289671498243331     0.0000550225108944211     0.0001140462951541168     0.0002224529678117402     0.0003708342300856602     0.0005448734437096227     0.0007320001381143919     0.0009240118817774966     0.0011117890961018584     0.0012775504129902515     0.0013944794964978718     0.0014369940587049272 
    0.0012162782162151967     0.0011783900113033821     0.0010736618390121090     0.0009240118817774966     0.0007536198614530121     0.0005807133508971658     0.0004169804964405103     0.0002720161130387934     0.0001561104952952814     0.0000783076007384304     0.0000412607447318897     0.0000207604713633819     0.0000072599499229731     -0.0000013291460736526     -0.0000067254547764999     -0.0000098038726782482     -0.0000108211022084262     -0.0000098038710926102     -0.0000067254516842917     -0.0000013291415730011     0.0000072599557817836     0.0000207604785805026     0.0000412607532559594     0.0000783076102820766     0.0001561105051556450     0.0002720161220602212     0.0004169805032492703     0.0005807133544117779     0.0007536198614530121     0.0009240118791749520     0.0010736618355861429     0.0011783900089752128     0.0012162782162151967 
    0.0009917987225487707     0.0009582753585518624     0.0008653078188394294     0.0007320001381143919     0.0005807133544117779     0.0004302213721644079     0.0002938518603599211     0.0001810945129327566     0.0000988218170180881     0.0000506179859524808     0.0000282868237534467     0.0000129203963504192     0.0000026789510177311     -0.0000040318563525067     -0.0000083719121941952     -0.0000108869466082488     -0.0000117216097427302     -0.0000108869448637607     -0.0000083719088209156     -0.0000040318515280390     0.0000026789571165634     0.0000129204035563910     0.0000282868318283076     0.0000506179944385736     0.0000988218251013066     0.0001810945194422108     0.0002938518640305844     0.0004302213721644080     0.0005807133508971659     0.0007320001324312159     0.0008653078131512782     0.0009582753550350618     0.0009917987225487707 
    0.0007680349594501561     0.0007391731217571928     0.0006591593530612269     0.0005448734437096227     0.0004169805032492703     0.0002938518640305843     0.0001886252190006086     0.0001090043734870716     0.0000579647616702165     0.0000330329469080182     0.0000172683795117951     0.0000062057772655927     -0.0000013027585988212     -0.0000063782837064952     -0.0000097350213195881     -0.0000116905658915025     -0.0000123376682211656     -0.0000116905640900449     -0.0000097350178714790     -0.0000063782788779916     -0.0000013027527110626     0.0000062057838593107     0.0000172683863841623     0.0000330329534656273     0.0000579647670739296     0.0001090043766882489     0.0001886252190006087     0.0002938518603599211     0.0004169804964405104     0.0005448734354100490     0.0006591593456027935     0.0007391731173607295     0.0007680349594501561 
    0.0005487079765431020     0.0005254737390238951     0.0004613493634798592     0.0003708342300856602     0.0002720161220602211     0.0001810945194422108     0.0001090043766882489     0.0000605380895335395     0.0000349863737899021     0.0000197173058112927     0.0000086545637612885     0.0000009221880455910     -0.0000044427565481722     -0.0000081575371727783     -0.0000106286477351359     -0.0000120503779920871     -0.0000125142785980666     -0.0000120503762527955     -0.0000106286444420288     -0.0000081575326662446     -0.0000044427512738234     0.0000009221935789171     0.0000086545689881851     0.0000197173100798393     0.0000349863763351347     0.0000605380895335396     0.0001090043734870717     0.0001810945129327565     0.0002720161130387933     0.0003708342202884401     0.0004613493551629541     0.0005254737342556730     0.0005487079765431020 
    0.0003477935355534622     0.0003311257593546121     0.0002855272258688154     0.0002224529678117402     0.0001561105051556449     0.0000988218251013066     0.0000579647670739296     0.0000349863763351346     0.0000204512655743596     0.0000098318334873834     0.0000023202510394446     -0.0000029539791860437     -0.0000066735151023846     -0.0000092583198984520     -0.0000109395688779842     -0.0000118694002107880     -0.0000121634694227283     -0.0000118693986639215     -0.0000109395659819320     -0.0000092583160321442     -0.0000066735107849682     -0.0000029539750163392     0.0000023202544374187     0.0000098318354909636     0.0000204512655743596     0.0000349863737899021     0.0000579647616702165     0.0000988218170180881     0.0001561104952952814     0.0002224529577897623     0.0002855272176621436     0.0003311257547338709     0.0003477935355534622 
    0.0001872641563431081     0.0001772292565910686     0.0001501913764883511     0.0001140462951541167     0.0000783076102820766     0.0000506179944385735     0.0000330329534656273     0.0000197173100798393     0.0000098318354909636     0.0000027870847673298     -0.0000021504986952676     -0.0000056155851635485     -0.0000080348213538635     -0.0000096523606182596     -0.0000106299026350189     -0.0000111221635762063     -0.0000112670358091101     -0.0000111221623347462     -0.0000106299003398748     -0.0000096523576432533     -0.0000080348182291206     -0.0000056155825025728     -0.0000021504971023541     0.0000027870847673298     0.0000098318334873834     0.0000197173058112927     0.0000330329469080183     0.0000506179859524808     0.0000783076007384304     0.0001140462859061384     0.0001501913691176159     0.0001772292524968602     0.0001872641563431081 
    0.0000857377112021330     0.0000812446621237437     0.0000695301278936326     0.0000550225108944211     0.0000412607532559593     0.0000282868318283076     0.0000172683863841624     0.0000086545689881851     0.0000023202544374187     -0.0000021504971023541     -0.0000052289062044946     -0.0000073006977952991     -0.0000086270753722995     -0.0000093856117699516     -0.0000097366274235971     -0.0000098498365307975     -0.0000098685450124968     -0.0000098498356542332     -0.0000097366258305772     -0.0000093856097931134     -0.0000086270735001488     -0.0000073006965948187     -0.0000052289062044946     -0.0000021504986952676     0.0000023202510394447     0.0000086545637612885     0.0000172683795117952     0.0000282868237534467     0.0000412607447318897     0.0000550225029597703     0.0000695301217162610     0.0000812446587324745     0.0000857377112021330 
    0.0000434085386984044     0.0000415358152663844     0.0000363497441168804     0.0000289671498243331     0.0000207604785805026     0.0000129204035563909     0.0000062057838593107     0.0000009221935789170     -0.0000029539750163393     -0.0000056155825025728     -0.0000073006965948187     -0.0000082292920202577     -0.0000085938268512928     -0.0000085782652050390     -0.0000083723090027039     -0.0000081575892161596     -0.0000080692708788692     -0.0000081575886894371     -0.0000083723080735194     -0.0000085782641459596     -0.0000085938260789645     -0.0000082292920202577     -0.0000073006977952991     -0.0000056155851635485     -0.0000029539791860437     0.0000009221880455910     0.0000062057772655927     0.0000129203963504191     0.0000207604713633820     0.0000289671433399930     0.0000363497391749304     0.0000415358125823560     0.0000434085386984044 
    0.0000200879515367851     0.0000190468751025930     0.0000161469997223565     0.0000119724913009507     0.0000072599557817836     0.0000026789571165634     -0.0000013027527110626     -0.0000044427512738234     -0.0000066735107849682     -0.0000080348182291206     -0.0000086270735001489     -0.0000085938260789646     -0.0000081195833036671     -0.0000074214081914589     -0.0000067228912137284     -0.0000062171114121375     -0.0000060334233148675     -0.0000062171111556677     -0.0000067228907906295     -0.0000074214078120878     -0.0000081195833036671     -0.0000085938268512928     -0.0000086270753722996     -0.0000080348213538636     -0.0000066735151023847     -0.0000044427565481722     -0.0000013027585988212     0.0000026789510177311     0.0000072599499229730     0.0000119724861888746     0.0000161469958956130     0.0000190468730431427     0.0000200879515367851 
    0.0000060161081989788     0.0000054341623926170     0.0000037999769372488     0.0000014129363077119     -0.0000013291415730011     -0.0000040318515280390     -0.0000063782788779916     -0.0000081575326662447     -0.0000092583160321442     -0.0000096523576432533     -0.0000093856097931135     -0.0000085782641459597     -0.0000074214078120878     -0.0000061561034762179     -0.0000050327409741989     -0.0000042646187414846     -0.0000039923313175281     -0.0000042646186487476     -0.0000050327408506062     -0.0000061561034762179     -0.0000074214081914589     -0.0000085782652050390     -0.0000093856117699517     -0.0000096523606182597     -0.0000092583198984521     -0.0000081575371727783     -0.0000063782837064951     -0.0000040318563525067     -0.0000013291460736526     0.0000014129324623843     0.0000037999740956870     0.0000054341608732682     0.0000060161081989788 
    -0.0000022444309444984     -0.0000025938047483983     -0.0000035816687368141     -0.0000050395914016804     -0.0000067254516842917     -0.0000083719088209156     -0.0000097350178714790     -0.0000106286444420288     -0.0000109395659819320     -0.0000106299003398748     -0.0000097366258305772     -0.0000083723080735194     -0.0000067228907906295     -0.0000050327408506062     -0.0000035702200792180     -0.0000025788004496887     -0.0000022280856159726     -0.0000025788004298325     -0.0000035702200792180     -0.0000050327409741989     -0.0000067228912137284     -0.0000083723090027039     -0.0000097366274235971     -0.0000106299026350189     -0.0000109395688779843     -0.0000106286477351360     -0.0000097350213195881     -0.0000083719121941952     -0.0000067254547765000     -0.0000050395940107809     -0.0000035816706504737     -0.0000025938057679236     -0.0000022444309444984 
    -0.0000067178166082897     -0.0000069588777062686     -0.0000076420491123261     -0.0000086505051964673     -0.0000098038710926103     -0.0000108869448637607     -0.0000116905640900448     -0.0000120503762527955     -0.0000118693986639215     -0.0000111221623347462     -0.0000098498356542332     -0.0000081575886894371     -0.0000062171111556677     -0.0000042646186487476     -0.0000025788004298325     -0.0000014318474892226     -0.0000010247654901655     -0.0000014318474892226     -0.0000025788004496887     -0.0000042646187414846     -0.0000062171114121374     -0.0000081575892161596     -0.0000098498365307975     -0.0000111221635762063     -0.0000118694002107880     -0.0000120503779920871     -0.0000116905658915026     -0.0000108869466082489     -0.0000098038726782482     -0.0000086505065265040     -0.0000076420500846093     -0.0000069588782235044     -0.0000067178166082897 
    -0.0000081610691495207     -0.0000083701559322449     -0.0000089625100663919     -0.0000098343485408816     -0.0000108211022084262     -0.0000117216097427302     -0.0000123376682211656     -0.0000125142785980666     -0.0000121634694227283     -0.0000112670358091101     -0.0000098685450124968     -0.0000080692708788692     -0.0000060334233148675     -0.0000039923313175281     -0.0000022280856159726     -0.0000010247654901655     -0.0000005969157455737     -0.0000010247654901655     -0.0000022280856159726     -0.0000039923313175281     -0.0000060334233148675     -0.0000080692708788692     -0.0000098685450124968     -0.0000112670358091101     -0.0000121634694227283     -0.0000125142785980666     -0.0000123376682211656     -0.0000117216097427302     -0.0000108211022084262     -0.0000098343485408816     -0.0000089625100663919     -0.0000083701559322449     -0.0000081610691495207 
    -0.0000067178166082897     -0.0000069588782235043     -0.0000076420500846093     -0.0000086505065265040     -0.0000098038726782482     -0.0000108869466082489     -0.0000116905658915026     -0.0000120503779920871     -0.0000118694002107880     -0.0000111221635762063     -0.0000098498365307975     -0.0000081575892161595     -0.0000062171114121374     -0.0000042646187414845     -0.0000025788004496887     -0.0000014318474892226     -0.0000010247654901655     -0.0000014318474892226     -0.0000025788004298325     -0.0000042646186487476     -0.0000062171111556676     -0.0000081575886894371     -0.0000098498356542332     -0.0000111221623347462     -0.0000118693986639215     -0.0000120503762527955     -0.0000116905640900448     -0.0000108869448637607     -0.0000098038710926103     -0.0000086505051964673     -0.0000076420491123261     -0.0000069588777062685     -0.0000067178166082897 
    -0.0000022444309444984     -0.0000025938057679236     -0.0000035816706504738     -0.0000050395940107809     -0.0000067254547765000     -0.0000083719121941952     -0.0000097350213195881     -0.0000106286477351359     -0.0000109395688779842     -0.0000106299026350189     -0.0000097366274235971     -0.0000083723090027039     -0.0000067228912137284     -0.0000050327409741989     -0.0000035702200792180     -0.0000025788004298325     -0.0000022280856159726     -0.0000025788004496887     -0.0000035702200792180     -0.0000050327408506061     -0.0000067228907906295     -0.0000083723080735194     -0.0000097366258305772     -0.0000106299003398748     -0.0000109395659819320     -0.0000106286444420288     -0.0000097350178714790     -0.0000083719088209156     -0.0000067254516842917     -0.0000050395914016804     -0.0000035816687368141     -0.0000025938047483983     -0.0000022444309444984 
    0.0000060161081989788     0.0000054341608732681     0.0000037999740956870     0.0000014129324623843     -0.0000013291460736526     -0.0000040318563525067     -0.0000063782837064951     -0.0000081575371727782     -0.0000092583198984521     -0.0000096523606182597     -0.0000093856117699517     -0.0000085782652050390     -0.0000074214081914589     -0.0000061561034762179     -0.0000050327408506062     -0.0000042646186487476     -0.0000039923313175281     -0.0000042646187414846     -0.0000050327409741989     -0.0000061561034762179     -0.0000074214078120878     -0.0000085782641459596     -0.0000093856097931135     -0.0000096523576432533     -0.0000092583160321442     -0.0000081575326662446     -0.0000063782788779916     -0.0000040318515280390     -0.0000013291415730011     0.0000014129363077119     0.0000037999769372488     0.0000054341623926170     0.0000060161081989788 
    0.0000200879515367851     0.0000190468730431427     0.0000161469958956130     0.0000119724861888746     0.0000072599499229730     0.0000026789510177311     -0.0000013027585988212     -0.0000044427565481722     -0.0000066735151023847     -0.0000080348213538636     -0.0000086270753722996     -0.0000085938268512928     -0.0000081195833036671     -0.0000074214078120878     -0.0000067228907906295     -0.0000062171111556676     -0.0000060334233148675     -0.0000062171114121374     -0.0000067228912137284     -0.0000074214081914589     -0.0000081195833036671     -0.0000085938260789645     -0.0000086270735001489     -0.0000080348182291206     -0.0000066735107849682     -0.0000044427512738234     -0.0000013027527110626     0.0000026789571165634     0.0000072599557817836     0.0000119724913009507     0.0000161469997223565     0.0000190468751025930     0.0000200879515367851 
    0.0000434085386984044     0.0000415358125823560     0.0000363497391749304     0.0000289671433399930     0.0000207604713633819     0.0000129203963504191     0.0000062057772655927     0.0000009221880455910     -0.0000029539791860437     -0.0000056155851635485     -0.0000073006977952991     -0.0000082292920202577     -0.0000085938260789645     -0.0000085782641459596     -0.0000083723080735194     -0.0000081575886894371     -0.0000080692708788692     -0.0000081575892161595     -0.0000083723090027039     -0.0000085782652050390     -0.0000085938268512928     -0.0000082292920202577     -0.0000073006965948187     -0.0000056155825025728     -0.0000029539750163392     0.0000009221935789170     0.0000062057838593107     0.0000129204035563909     0.0000207604785805026     0.0000289671498243331     0.0000363497441168804     0.0000415358152663844     0.0000434085386984044 
    0.0000857377112021330     0.0000812446587324745     0.0000695301217162610     0.0000550225029597702     0.0000412607447318897     0.0000282868237534467     0.0000172683795117952     0.0000086545637612885     0.0000023202510394447     -0.0000021504986952676     -0.0000052289062044946     -0.0000073006965948187     -0.0000086270735001489     -0.0000093856097931134     -0.0000097366258305771     -0.0000098498356542332     -0.0000098685450124968     -0.0000098498365307975     -0.0000097366274235971     -0.0000093856117699516     -0.0000086270753722995     -0.0000073006977952991     -0.0000052289062044946     -0.0000021504971023541     0.0000023202544374187     0.0000086545689881851     0.0000172683863841624     0.0000282868318283076     0.0000412607532559594     0.0000550225108944212     0.0000695301278936326     0.0000812446621237437     0.0000857377112021330 
    0.0001872641563431082     0.0001772292524968602     0.0001501913691176159     0.0001140462859061384     0.0000783076007384304     0.0000506179859524808     0.0000330329469080182     0.0000197173058112926     0.0000098318334873834     0.0000027870847673298     -0.0000021504971023541     -0.0000056155825025727     -0.0000080348182291205     -0.0000096523576432532     -0.0000106299003398747     -0.0000111221623347461     -0.0000112670358091100     -0.0000111221635762063     -0.0000106299026350189     -0.0000096523606182596     -0.0000080348213538635     -0.0000056155851635485     -0.0000021504986952676     0.0000027870847673298     0.0000098318354909636     0.0000197173100798393     0.0000330329534656274     0.0000506179944385736     0.0000783076102820766     0.0001140462951541168     0.0001501913764883512     0.0001772292565910686     0.0001872641563431082 
    0.0003477935355534622     0.0003311257547338709     0.0002855272176621436     0.0002224529577897623     0.0001561104952952814     0.0000988218170180881     0.0000579647616702165     0.0000349863737899021     0.0000204512655743596     0.0000098318354909636     0.0000023202544374187     -0.0000029539750163393     -0.0000066735107849682     -0.0000092583160321442     -0.0000109395659819320     -0.0000118693986639215     -0.0000121634694227283     -0.0000118694002107880     -0.0000109395688779843     -0.0000092583198984520     -0.0000066735151023846     -0.0000029539791860437     0.0000023202510394447     0.0000098318334873834     0.0000204512655743596     0.0000349863763351347     0.0000579647670739297     0.0000988218251013066     0.0001561105051556449     0.0002224529678117402     0.0002855272258688154     0.0003311257593546121     0.0003477935355534622 
    0.0005487079765431019     0.0005254737342556730     0.0004613493551629541     0.0003708342202884401     0.0002720161130387933     0.0001810945129327565     0.0001090043734870716     0.0000605380895335395     0.0000349863763351346     0.0000197173100798393     0.0000086545689881850     0.0000009221935789170     -0.0000044427512738234     -0.0000081575326662447     -0.0000106286444420288     -0.0000120503762527955     -0.0000125142785980666     -0.0000120503779920871     -0.0000106286477351359     -0.0000081575371727782     -0.0000044427565481722     0.0000009221880455910     0.0000086545637612885     0.0000197173058112927     0.0000349863737899021     0.0000605380895335396     0.0001090043766882490     0.0001810945194422108     0.0002720161220602212     0.0003708342300856602     0.0004613493634798592     0.0005254737390238951     0.0005487079765431019 
    0.0007680349594501561     0.0007391731173607295     0.0006591593456027935     0.0005448734354100490     0.0004169804964405103     0.0002938518603599211     0.0001886252190006086     0.0001090043766882489     0.0000579647670739296     0.0000330329534656273     0.0000172683863841623     0.0000062057838593107     -0.0000013027527110626     -0.0000063782788779916     -0.0000097350178714790     -0.0000116905640900448     -0.0000123376682211656     -0.0000116905658915025     -0.0000097350213195880     -0.0000063782837064951     -0.0000013027585988212     0.0000062057772655928     0.0000172683795117952     0.0000330329469080182     0.0000579647616702165     0.0001090043734870717     0.0001886252190006087     0.0002938518640305844     0.0004169805032492703     0.0005448734437096227     0.0006591593530612270     0.0007391731217571930     0.0007680349594501561 
    0.0009917987225487707     0.0009582753550350618     0.0008653078131512782     0.0007320001324312159     0.0005807133508971659     0.0004302213721644080     0.0002938518640305844     0.0001810945194422108     0.0000988218251013066     0.0000506179944385735     0.0000282868318283076     0.0000129204035563909     0.0000026789571165633     -0.0000040318515280391     -0.0000083719088209156     -0.0000108869448637607     -0.0000117216097427302     -0.0000108869466082488     -0.0000083719121941952     -0.0000040318563525067     0.0000026789510177311     0.0000129203963504192     0.0000282868237534467     0.0000506179859524808     0.0000988218170180881     0.0001810945129327566     0.0002938518603599212     0.0004302213721644079     0.0005807133544117779     0.0007320001381143919     0.0008653078188394294     0.0009582753585518624     0.0009917987225487707 
    0.0012162782162151967     0.0011783900089752130     0.0010736618355861429     0.0009240118791749520     0.0007536198614530121     0.0005807133544117779     0.0004169805032492703     0.0002720161220602212     0.0001561105051556449     0.0000783076102820766     0.0000412607532559594     0.0000207604785805026     0.0000072599557817836     -0.0000013291415730011     -0.0000067254516842917     -0.0000098038710926103     -0.0000108211022084262     -0.0000098038726782482     -0.0000067254547764999     -0.0000013291460736526     0.0000072599499229730     0.0000207604713633820     0.0000412607447318897     0.0000783076007384304     0.0001561104952952814     0.0002720161130387934     0.0004169804964405103     0.0005807133508971659     0.0007536198614530119     0.0009240118817774966     0.0010736618390121090     0.0011783900113033821     0.0012162782162151967 
    0.0014369940587049272     0.0013944794964978718     0.0012775504129902515     0.0011117890961018586     0.0009240118817774966     0.0007320001381143918     0.0005448734437096227     0.0003708342300856602     0.0002224529678117402     0.0001140462951541168     0.0000550225108944211     0.0000289671498243331     0.0000119724913009508     0.0000014129363077119     -0.0000050395914016804     -0.0000086505051964673     -0.0000098343485408815     -0.0000086505065265040     -0.0000050395940107808     0.0000014129324623843     0.0000119724861888746     0.0000289671433399930     0.0000550225029597703     0.0001140462859061385     0.0002224529577897624     0.0003708342202884401     0.0005448734354100490     0.0007320001324312159     0.0009240118791749519     0.0011117890961018584     0.0012775504143198897     0.0013944794976607265     0.0014369940587049272 
    0.0016352402746363565     0.0015881015748363523     0.0014590344811876573     0.0012775504143198902     0.0010736618390121090     0.0008653078188394296     0.0006591593530612269     0.0004613493634798593     0.0002855272258688154     0.0001501913764883511     0.0000695301278936326     0.0000363497441168804     0.0000161469997223565     0.0000037999769372488     -0.0000035816687368140     -0.0000076420491123261     -0.0000089625100663918     -0.0000076420500846093     -0.0000035816706504737     0.0000037999740956871     0.0000161469958956131     0.0000363497391749305     0.0000695301217162611     0.0001501913691176160     0.0002855272176621436     0.0004613493551629541     0.0006591593456027935     0.0008653078131512784     0.0010736618355861431     0.0012775504129902517     0.0014590344811876571     0.0015881015751777932     0.0016352402746363565 
    0.0017772569939833224     0.0017265515739254998     0.0015881015751777932     0.0013944794976607272     0.0011783900113033819     0.0009582753585518624     0.0007391731217571928     0.0005254737390238953     0.0003311257593546121     0.0001772292565910686     0.0000812446621237438     0.0000415358152663844     0.0000190468751025930     0.0000054341623926170     -0.0000025938047483982     -0.0000069588777062685     -0.0000083701559322448     -0.0000069588782235043     -0.0000025938057679236     0.0000054341608732682     0.0000190468730431428     0.0000415358125823561     0.0000812446587324746     0.0001772292524968604     0.0003311257547338709     0.0005254737342556731     0.0007391731173607295     0.0009582753550350616     0.0011783900089752130     0.0013944794964978720     0.0015881015748363523     0.0017265515739254998     0.0017772569939833224 
    0.0018293151336774309     0.0017772569939833224     0.0016352402746363565     0.0014369940587049275     0.0012162782162151965     0.0009917987225487707     0.0007680349594501562     0.0005487079765431019     0.0003477935355534622     0.0001872641563431081     0.0000857377112021330     0.0000434085386984044     0.0000200879515367851     0.0000060161081989788     -0.0000022444309444984     -0.0000067178166082896     -0.0000081610691495206     -0.0000067178166082896     -0.0000022444309444984     0.0000060161081989788     0.0000200879515367851     0.0000434085386984044     0.0000857377112021330     0.0001872641563431081     0.0003477935355534622     0.0005487079765431019     0.0007680349594501562     0.0009917987225487705     0.0012162782162151965     0.0014369940587049275     0.0016352402746363565     0.0017772569939833224     0.0018293151336774309 
    0.0019861496128634809     0.0019300498792404687     0.0017774427010377736     0.0015656733581721741     0.0013317866754549996     0.0010952094226412325     0.0008584171582145012     0.0006226885202995289     0.0004018308391089590     0.0002205314736010673     0.0001012238357057707     0.0000495945231771850     0.0000235609757051898     0.0000079859457521894     -0.0000010350839851406     -0.0000058608412248593     -0.0000074076073060638     -0.0000058608412248593     -0.0000010350839851406     0.0000079859457521894     0.0000235609757051898     0.0000495945231771850     0.0001012238357057707     0.0002205314736010673     0.0004018308391089590     0.0006226885202995290     0.0008584171582145012     0.0010952094226412325     0.0013317866754549996     0.0015656733581721741     0.0017774427010377736     0.0019300498792404687     0.0019861496128634809 
    0.0019300498792404687     0.0018754462011171577     0.0017267744358773918     0.0015200641084523537     0.0012911278978086683     0.0010590493382673725     0.0008269469138650365     0.0005969564770163060     0.0003829977197852709     0.0002088742910906828     0.0000957307859060515     0.0000474621775827461     0.0000223714436981053     0.0000073178010446931     -0.0000014406502267444     -0.0000061455585687333     -0.0000076570141513674     -0.0000061455582970248     -0.0000014406496913551     0.0000073178018431740     0.0000223714447836907     0.0000474621790049881     0.0000957307877138783     0.0002088742932833568     0.0003829977222629736     0.0005969564795638161     0.0008269469161927563     0.0010590493401037842     0.0012911278990042055     0.0015200641090394056     0.0017267744360472753     0.0018754462011171572     0.0019300498792404687 
    0.0017774427010377734     0.0017267744360472757     0.0015884193298595912     0.0013949076682861102     0.0011788954673301842     0.0009587916914900641     0.0007396292829668820     0.0005258208832959522     0.0003313503019771973     0.0001773500814825990     0.0000813007848856005     0.0000415673684883860     0.0000190666878452443     0.0000054477261060751     -0.0000025835436684126     -0.0000069502544875705     -0.0000083620335961719     -0.0000069502539798754     -0.0000025835426693397     0.0000054477275912414     0.0000190666898526029     0.0000415673710968203     0.0000813007881698554     0.0001773500854253757     0.0003313503063799412     0.0005258208877498277     0.0007396292869326308     0.0009587916944785158     0.0011788954691030046     0.0013949076689632911     0.0015884193298595912     0.0017267744358773918     0.0017774427010377734 
    0.0015656733581721741     0.0015200641090394060     0.0013949076689632911     0.0012182089307963960     0.0010188571177160892     0.0008150009410529036     0.0006146394294724835     0.0004250345308274145     0.0002595286348518506     0.0001348639100968196     0.0000631098293226555     0.0000332011556748531     0.0000143296402256866     0.0000027291714391232     -0.0000042639923871233     -0.0000081367815750130     -0.0000094003260992511     -0.0000081367808861411     -0.0000042639910357831     0.0000027291734337547     0.0000143296428889357     0.0000332011590777713     0.0000631098335235799     0.0001348639150328783     0.0002595286402290833     0.0004250345360882564     0.0006146394339097392     0.0008150009440634680     0.0010188571190773350     0.0012182089307963960     0.0013949076682861102     0.0015200641084523532     0.0015656733581721741 
    0.0013317866754549996     0.0012911278990042055     0.0011788954691030048     0.0010188571190773350     0.0008368144091735519     0.0006514749173590726     0.0004741279852865528     0.0003142700461722600     0.0001832875185647997     0.0000922411380717815     0.0000467217640040286     0.0000239325923729518     0.0000090033473072125     -0.0000003856751963363     -0.0000062112470238984     -0.0000095070618844385     -0.0000105925288427546     -0.0000095070610697292     -0.0000062112454349519     -0.0000003856728796917     0.0000090033503372393     0.0000239325961355711     0.0000467217684930295     0.0000922411431479496     0.0001832875238495678     0.0003142700510250280     0.0004741279889447162     0.0006514749192362307     0.0008368144091735521     0.0010188571177160892     0.0011788954673301840     0.0012911278978086683     0.0013317866754549996 
    0.0010952094226412325     0.0010590493401037837     0.0009587916944785158     0.0008150009440634681     0.0006514749192362307     0.0004878095680328006     0.0003377077143920936     0.0002112439891764508     0.0001164611408991240     0.0000583729603217125     0.0000321292798627422     0.0000150988465474144     0.0000038288767306749     -0.0000034725519366864     -0.0000081477496679517     -0.0000108434071981306     -0.0000117368963023625     -0.0000108434063072813     -0.0000081477479452209     -0.0000034725494688901     0.0000038288798645394     0.0000150988502798609     0.0000321292840893888     0.0000583729648131602     0.0001164611452183906     0.0002112439926765576     0.0003377077163695864     0.0004878095680328007     0.0006514749173590727     0.0008150009410529038     0.0009587916914900643     0.0010590493382673721     0.0010952094226412325 
    0.0008584171582145008     0.0008269469161927563     0.0007396292869326308     0.0006146394339097392     0.0004741279889447161     0.0003377077163695863     0.0002194989080859957     0.0001281536987601810     0.0000676277037398491     0.0000372059171812733     0.0000197483627831936     0.0000075275409930893     -0.0000007013657840641     -0.0000062128771158308     -0.0000098378347147455     -0.0000119482659104355     -0.0000126475066716557     -0.0000119482649943502     -0.0000098378329612887     -0.0000062128746571655     -0.0000007013627742121     0.0000075275443881561     0.0000197483663570943     0.0000372059206299565     0.0000676277066119473     0.0001281537004756165     0.0002194989080859957     0.0003377077143920936     0.0004741279852865528     0.0006146394294724835     0.0007396292829668820     0.0008269469138650365     0.0008584171582145008 
    0.0006226885202995289     0.0005969564795638162     0.0005258208877498275     0.0004250345360882564     0.0003142700510250280     0.0002112439926765576     0.0001281537004756165     0.0000707604440449214     0.0000392237927577008     0.0000223144161952524     0.0000100594827911050     0.0000015288312430379     -0.0000043529224101698     -0.0000084087748555744     -0.0000111097710323202     -0.0000126717525617844     -0.0000131837593691840     -0.0000126717516807749     -0.0000111097693640298     -0.0000084087725697374     -0.0000043529197258395     0.0000015288340764896     0.0000100594854911054     0.0000223144184232117     0.0000392237941002997     0.0000707604440449214     0.0001281536987601811     0.0002112439891764508     0.0003142700461722600     0.0004250345308274146     0.0005258208832959520     0.0005969564770163060     0.0006226885202995289 
    0.0004018308391089590     0.0003829977222629735     0.0003313503063799412     0.0002595286402290833     0.0001832875238495677     0.0001164611452183905     0.0000676277066119473     0.0000392237941002997     0.0000230650263119357     0.0000112502190264578     0.0000029010176683965     -0.0000029503351533893     -0.0000070770566398847     -0.0000099603033233645     -0.0000118578995926619     -0.0000129232674393495     -0.0000132639487446545     -0.0000129232666605949     -0.0000118578981336294     -0.0000099603013720426     -0.0000070770544533884     -0.0000029503330301185     0.0000029010194116844     0.0000112502200636714     0.0000230650263119357     0.0000392237927577009     0.0000676277037398491     0.0001164611408991241     0.0001832875185647997     0.0002595286348518507     0.0003313503019771973     0.0003829977197852709     0.0004018308391089590 
    0.0002205314736010673     0.0002088742932833568     0.0001773500854253757     0.0001348639150328783     0.0000922411431479495     0.0000583729648131601     0.0000372059206299565     0.0000223144184232117     0.0000112502200636713     0.0000033510300022550     -0.0000022071938695462     -0.0000061396959766982     -0.0000089277677604244     -0.0000108403027943761     -0.0000120403165680586     -0.0000126726936900441     -0.0000128655312755227     -0.0000126726930718716     -0.0000120403154228330     -0.0000108403013048356     -0.0000089277661885875     -0.0000061396946303162     -0.0000022071930580064     0.0000033510300022550     0.0000112502190264578     0.0000223144161952524     0.0000372059171812733     0.0000583729603217125     0.0000922411380717815     0.0001348639100968196     0.0001773500814825991     0.0002088742910906828     0.0002205314736010673 
    0.0001012238357057707     0.0000957307877138782     0.0000813007881698554     0.0000631098335235799     0.0000467217684930294     0.0000321292840893887     0.0000197483663570943     0.0000100594854911053     0.0000029010194116845     -0.0000022071930580064     -0.0000057992266976670     -0.0000083059176258373     -0.0000100094046288746     -0.0000110860234191930     -0.0000116817194227105     -0.0000119495785466252     -0.0000120211959581509     -0.0000119495781182689     -0.0000116817186405159     -0.0000110860224419470     -0.0000100094036962669     -0.0000083059170231599     -0.0000057992266976670     -0.0000022071938695462     0.0000029010176683966     0.0000100594827911050     0.0000197483627831936     0.0000321292798627422     0.0000467217640040286     0.0000631098293226555     0.0000813007848856005     0.0000957307859060515     0.0001012238357057707 
    0.0000495945231771850     0.0000474621790049880     0.0000415673710968203     0.0000332011590777713     0.0000239325961355711     0.0000150988502798609     0.0000075275443881561     0.0000015288340764895     -0.0000029503330301184     -0.0000061396946303162     -0.0000083059170231599     -0.0000096826080520408     -0.0000104592648563440     -0.0000108028038730094     -0.0000108784795262635     -0.0000108441125113201     -0.0000108179511080830     -0.0000108441122616619     -0.0000108784790814708     -0.0000108028033594318     -0.0000104592644768515     -0.0000096826080520408     -0.0000083059176258373     -0.0000061396959766982     -0.0000029503351533894     0.0000015288312430379     0.0000075275409930894     0.0000150988465474144     0.0000239325923729518     0.0000332011556748531     0.0000415673684883860     0.0000474621775827461     0.0000495945231771850 
    0.0000235609757051898     0.0000223714447836907     0.0000190666898526029     0.0000143296428889357     0.0000090033503372392     0.0000038288798645394     -0.0000007013627742121     -0.0000043529197258395     -0.0000070770544533884     -0.0000089277661885875     -0.0000100094036962669     -0.0000104592644768515     -0.0000104459419609964     -0.0000101608971116223     -0.0000097946616032233     -0.0000095060677109386     -0.0000093981027141459     -0.0000095060675951250     -0.0000097946614083447     -0.0000101608969326384     -0.0000104459419609964     -0.0000104592648563440     -0.0000100094046288746     -0.0000089277677604244     -0.0000070770566398847     -0.0000043529224101699     -0.0000007013657840641     0.0000038288767306749     0.0000090033473072124     0.0000143296402256865     0.0000190666878452443     0.0000223714436981053     0.0000235609757051898 
    0.0000079859457521894     0.0000073178018431740     0.0000054477275912414     0.0000027291734337546     -0.0000003856728796918     -0.0000034725494688901     -0.0000062128746571656     -0.0000084087725697375     -0.0000099603013720426     -0.0000108403013048356     -0.0000110860224419470     -0.0000108028033594318     -0.0000101608969326385     -0.0000093705617376810     -0.0000086395669404134     -0.0000081332603172706     -0.0000079532776455504     -0.0000081332602784510     -0.0000086395668865900     -0.0000093705617376810     -0.0000101608971116223     -0.0000108028038730094     -0.0000110860234191930     -0.0000108403027943762     -0.0000099603033233646     -0.0000084087748555745     -0.0000062128771158308     -0.0000034725519366864     -0.0000003856751963363     0.0000027291714391232     0.0000054477261060751     0.0000073178010446931     0.0000079859457521894 
    -0.0000010350839851406     -0.0000014406496913551     -0.0000025835426693397     -0.0000042639910357831     -0.0000062112454349519     -0.0000081477479452209     -0.0000098378329612887     -0.0000111097693640298     -0.0000118578981336294     -0.0000120403154228329     -0.0000116817186405159     -0.0000108784790814708     -0.0000097946614083447     -0.0000086395668865900     -0.0000076289552722746     -0.0000069440032375026     -0.0000067022524403236     -0.0000069440032300755     -0.0000076289552722746     -0.0000086395669404133     -0.0000097946616032233     -0.0000108784795262635     -0.0000116817194227104     -0.0000120403165680586     -0.0000118578995926620     -0.0000111097710323202     -0.0000098378347147455     -0.0000081477496679517     -0.0000062112470238984     -0.0000042639923871233     -0.0000025835436684126     -0.0000014406502267444     -0.0000010350839851406 
    -0.0000058608412248592     -0.0000061455582970247     -0.0000069502539798754     -0.0000081367808861411     -0.0000095070610697292     -0.0000108434063072813     -0.0000119482649943502     -0.0000126717516807749     -0.0000129232666605950     -0.0000126726930718715     -0.0000119495781182689     -0.0000108441122616619     -0.0000095060675951250     -0.0000081332602784510     -0.0000069440032300755     -0.0000061371912051823     -0.0000058516755261283     -0.0000061371912051823     -0.0000069440032375026     -0.0000081332603172706     -0.0000095060677109386     -0.0000108441125113201     -0.0000119495785466252     -0.0000126726936900441     -0.0000129232674393495     -0.0000126717525617844     -0.0000119482659104355     -0.0000108434071981306     -0.0000095070618844385     -0.0000081367815750130     -0.0000069502544875705     -0.0000061455585687333     -0.0000058608412248592 
    -0.0000074076073060638     -0.0000076570141513674     -0.0000083620335961719     -0.0000094003260992511     -0.0000105925288427546     -0.0000117368963023625     -0.0000126475066716557     -0.0000131837593691840     -0.0000132639487446545     -0.0000128655312755227     -0.0000120211959581509     -0.0000108179511080830     -0.0000093981027141460     -0.0000079532776455504     -0.0000067022524403236     -0.0000058516755261284     -0.0000055501177131204     -0.0000058516755261283     -0.0000067022524403236     -0.0000079532776455503     -0.0000093981027141459     -0.0000108179511080829     -0.0000120211959581509     -0.0000128655312755227     -0.0000132639487446545     -0.0000131837593691839     -0.0000126475066716557     -0.0000117368963023625     -0.0000105925288427546     -0.0000094003260992511     -0.0000083620335961719     -0.0000076570141513674     -0.0000074076073060638 
    -0.0000058608412248592     -0.0000061455585687333     -0.0000069502544875705     -0.0000081367815750130     -0.0000095070618844385     -0.0000108434071981306     -0.0000119482659104355     -0.0000126717525617844     -0.0000129232674393495     -0.0000126726936900441     -0.0000119495785466252     -0.0000108441125113201     -0.0000095060677109386     -0.0000081332603172706     -0.0000069440032375026     -0.0000061371912051823     -0.0000058516755261283     -0.0000061371912051823     -0.0000069440032300755     -0.0000081332602784510     -0.0000095060675951249     -0.0000108441122616618     -0.0000119495781182689     -0.0000126726930718715     -0.0000129232666605949     -0.0000126717516807749     -0.0000119482649943502     -0.0000108434063072813     -0.0000095070610697292     -0.0000081367808861411     -0.0000069502539798754     -0.0000061455582970247     -0.0000058608412248592 
    -0.0000010350839851406     -0.0000014406502267444     -0.0000025835436684126     -0.0000042639923871233     -0.0000062112470238984     -0.0000081477496679517     -0.0000098378347147455     -0.0000111097710323202     -0.0000118578995926620     -0.0000120403165680586     -0.0000116817194227105     -0.0000108784795262635     -0.0000097946616032233     -0.0000086395669404133     -0.0000076289552722746     -0.0000069440032300755     -0.0000067022524403236     -0.0000069440032375026     -0.0000076289552722746     -0.0000086395668865899     -0.0000097946614083446     -0.0000108784790814708     -0.0000116817186405158     -0.0000120403154228329     -0.0000118578981336294     -0.0000111097693640298     -0.0000098378329612887     -0.0000081477479452209     -0.0000062112454349519     -0.0000042639910357831     -0.0000025835426693397     -0.0000014406496913551     -0.0000010350839851406 
    0.0000079859457521894     0.0000073178010446931     0.0000054477261060751     0.0000027291714391232     -0.0000003856751963363     -0.0000034725519366864     -0.0000062128771158308     -0.0000084087748555744     -0.0000099603033233646     -0.0000108403027943762     -0.0000110860234191930     -0.0000108028038730095     -0.0000101608971116223     -0.0000093705617376810     -0.0000086395668865900     -0.0000081332602784510     -0.0000079532776455504     -0.0000081332603172706     -0.0000086395669404133     -0.0000093705617376810     -0.0000101608969326384     -0.0000108028033594317     -0.0000110860224419470     -0.0000108403013048356     -0.0000099603013720426     -0.0000084087725697374     -0.0000062128746571655     -0.0000034725494688901     -0.0000003856728796918     0.0000027291734337547     0.0000054477275912414     0.0000073178018431740     0.0000079859457521894 
    0.0000235609757051898     0.0000223714436981053     0.0000190666878452443     0.0000143296402256865     0.0000090033473072124     0.0000038288767306749     -0.0000007013657840641     -0.0000043529224101699     -0.0000070770566398847     -0.0000089277677604245     -0.0000100094046288746     -0.0000104592648563440     -0.0000104459419609964     -0.0000101608969326385     -0.0000097946614083447     -0.0000095060675951250     -0.0000093981027141460     -0.0000095060677109386     -0.0000097946616032233     -0.0000101608971116223     -0.0000104459419609964     -0.0000104592644768515     -0.0000100094036962669     -0.0000089277661885875     -0.0000070770544533884     -0.0000043529197258395     -0.0000007013627742121     0.0000038288798645394     0.0000090033503372393     0.0000143296428889357     0.0000190666898526029     0.0000223714447836907     0.0000235609757051898 
    0.0000495945231771850     0.0000474621775827461     0.0000415673684883860     0.0000332011556748531     0.0000239325923729518     0.0000150988465474144     0.0000075275409930893     0.0000015288312430379     -0.0000029503351533894     -0.0000061396959766983     -0.0000083059176258373     -0.0000096826080520409     -0.0000104592644768515     -0.0000108028033594318     -0.0000108784790814708     -0.0000108441122616619     -0.0000108179511080829     -0.0000108441125113201     -0.0000108784795262635     -0.0000108028038730094     -0.0000104592648563440     -0.0000096826080520408     -0.0000083059170231599     -0.0000061396946303162     -0.0000029503330301184     0.0000015288340764895     0.0000075275443881561     0.0000150988502798609     0.0000239325961355711     0.0000332011590777713     0.0000415673710968203     0.0000474621790049880     0.0000495945231771850 
    0.0001012238357057707     0.0000957307859060515     0.0000813007848856005     0.0000631098293226555     0.0000467217640040286     0.0000321292798627422     0.0000197483627831936     0.0000100594827911050     0.0000029010176683965     -0.0000022071938695462     -0.0000057992266976670     -0.0000083059170231600     -0.0000100094036962669     -0.0000110860224419470     -0.0000116817186405159     -0.0000119495781182689     -0.0000120211959581509     -0.0000119495785466252     -0.0000116817194227104     -0.0000110860234191930     -0.0000100094046288746     -0.0000083059176258373     -0.0000057992266976670     -0.0000022071930580063     0.0000029010194116845     0.0000100594854911054     0.0000197483663570943     0.0000321292840893888     0.0000467217684930295     0.0000631098335235799     0.0000813007881698553     0.0000957307877138782     0.0001012238357057707 
    0.0002205314736010673     0.0002088742910906828     0.0001773500814825991     0.0001348639100968196     0.0000922411380717815     0.0000583729603217125     0.0000372059171812732     0.0000223144161952523     0.0000112502190264578     0.0000033510300022550     -0.0000022071930580064     -0.0000061396946303162     -0.0000089277661885875     -0.0000108403013048356     -0.0000120403154228329     -0.0000126726930718715     -0.0000128655312755227     -0.0000126726936900441     -0.0000120403165680586     -0.0000108403027943761     -0.0000089277677604244     -0.0000061396959766982     -0.0000022071938695462     0.0000033510300022550     0.0000112502200636713     0.0000223144184232117     0.0000372059206299565     0.0000583729648131602     0.0000922411431479496     0.0001348639150328783     0.0001773500854253757     0.0002088742932833568     0.0002205314736010673 
    0.0004018308391089590     0.0003829977197852709     0.0003313503019771973     0.0002595286348518507     0.0001832875185647997     0.0001164611408991240     0.0000676277037398491     0.0000392237927577008     0.0000230650263119356     0.0000112502200636713     0.0000029010194116844     -0.0000029503330301185     -0.0000070770544533884     -0.0000099603013720426     -0.0000118578981336294     -0.0000129232666605949     -0.0000132639487446545     -0.0000129232674393495     -0.0000118578995926620     -0.0000099603033233645     -0.0000070770566398846     -0.0000029503351533893     0.0000029010176683966     0.0000112502190264578     0.0000230650263119357     0.0000392237941002997     0.0000676277066119474     0.0001164611452183906     0.0001832875238495678     0.0002595286402290833     0.0003313503063799412     0.0003829977222629735     0.0004018308391089590 
    0.0006226885202995289     0.0005969564770163060     0.0005258208832959519     0.0004250345308274145     0.0003142700461722600     0.0002112439891764508     0.0001281536987601810     0.0000707604440449214     0.0000392237941002996     0.0000223144184232116     0.0000100594854911053     0.0000015288340764895     -0.0000043529197258396     -0.0000084087725697375     -0.0000111097693640298     -0.0000126717516807749     -0.0000131837593691839     -0.0000126717525617844     -0.0000111097710323202     -0.0000084087748555744     -0.0000043529224101698     0.0000015288312430379     0.0000100594827911050     0.0000223144161952524     0.0000392237927577009     0.0000707604440449215     0.0001281537004756165     0.0002112439926765576     0.0003142700510250280     0.0004250345360882564     0.0005258208877498276     0.0005969564795638162     0.0006226885202995289 
    0.0008584171582145008     0.0008269469138650365     0.0007396292829668820     0.0006146394294724835     0.0004741279852865527     0.0003377077143920936     0.0002194989080859957     0.0001281537004756165     0.0000676277066119473     0.0000372059206299564     0.0000197483663570943     0.0000075275443881561     -0.0000007013627742121     -0.0000062128746571655     -0.0000098378329612887     -0.0000119482649943502     -0.0000126475066716557     -0.0000119482659104355     -0.0000098378347147454     -0.0000062128771158308     -0.0000007013657840640     0.0000075275409930894     0.0000197483627831937     0.0000372059171812733     0.0000676277037398491     0.0001281536987601811     0.0002194989080859958     0.0003377077163695863     0.0004741279889447162     0.0006146394339097392     0.0007396292869326308     0.0008269469161927564     0.0008584171582145008 
    0.0010952094226412325     0.0010590493382673721     0.0009587916914900643     0.0008150009410529038     0.0006514749173590726     0.0004878095680328006     0.0003377077163695863     0.0002112439926765576     0.0001164611452183905     0.0000583729648131601     0.0000321292840893887     0.0000150988502798609     0.0000038288798645394     -0.0000034725494688901     -0.0000081477479452209     -0.0000108434063072813     -0.0000117368963023625     -0.0000108434071981305     -0.0000081477496679517     -0.0000034725519366864     0.0000038288767306749     0.0000150988465474144     0.0000321292798627422     0.0000583729603217125     0.0001164611408991241     0.0002112439891764508     0.0003377077143920936     0.0004878095680328006     0.0006514749192362307     0.0008150009440634681     0.0009587916944785159     0.0010590493401037837     0.0010952094226412325 
    0.0013317866754549996     0.0012911278978086683     0.0011788954673301840     0.0010188571177160892     0.0008368144091735521     0.0006514749192362307     0.0004741279889447162     0.0003142700510250280     0.0001832875238495677     0.0000922411431479495     0.0000467217684930295     0.0000239325961355711     0.0000090033503372393     -0.0000003856728796917     -0.0000062112454349519     -0.0000095070610697292     -0.0000105925288427546     -0.0000095070618844385     -0.0000062112470238984     -0.0000003856751963363     0.0000090033473072125     0.0000239325923729518     0.0000467217640040287     0.0000922411380717815     0.0001832875185647997     0.0003142700461722600     0.0004741279852865528     0.0006514749173590727     0.0008368144091735519     0.0010188571190773350     0.0011788954691030048     0.0012911278990042055     0.0013317866754549996 
    0.0015656733581721741     0.0015200641084523532     0.0013949076682861102     0.0012182089307963960     0.0010188571190773350     0.0008150009440634680     0.0006146394339097394     0.0004250345360882564     0.0002595286402290833     0.0001348639150328783     0.0000631098335235799     0.0000332011590777713     0.0000143296428889357     0.0000027291734337547     -0.0000042639910357831     -0.0000081367808861411     -0.0000094003260992511     -0.0000081367815750130     -0.0000042639923871232     0.0000027291714391232     0.0000143296402256866     0.0000332011556748531     0.0000631098293226556     0.0001348639100968196     0.0002595286348518507     0.0004250345308274146     0.0006146394294724835     0.0008150009410529036     0.0010188571177160892     0.0012182089307963960     0.0013949076689632911     0.0015200641090394060     0.0015656733581721741 
    0.0017774427010377734     0.0017267744358773918     0.0015884193298595912     0.0013949076689632911     0.0011788954691030048     0.0009587916944785158     0.0007396292869326308     0.0005258208877498276     0.0003313503063799412     0.0001773500854253757     0.0000813007881698553     0.0000415673710968202     0.0000190666898526028     0.0000054477275912414     -0.0000025835426693397     -0.0000069502539798754     -0.0000083620335961719     -0.0000069502544875705     -0.0000025835436684126     0.0000054477261060752     0.0000190666878452443     0.0000415673684883861     0.0000813007848856006     0.0001773500814825991     0.0003313503019771974     0.0005258208832959521     0.0007396292829668820     0.0009587916914900641     0.0011788954673301842     0.0013949076682861102     0.0015884193298595912     0.0017267744360472757     0.0017774427010377734 
    0.0019300498792404687     0.0018754462011171572     0.0017267744360472753     0.0015200641090394056     0.0012911278990042055     0.0010590493401037842     0.0008269469161927564     0.0005969564795638162     0.0003829977222629735     0.0002088742932833567     0.0000957307877138782     0.0000474621790049880     0.0000223714447836907     0.0000073178018431740     -0.0000014406496913551     -0.0000061455582970247     -0.0000076570141513674     -0.0000061455585687333     -0.0000014406502267444     0.0000073178010446931     0.0000223714436981053     0.0000474621775827461     0.0000957307859060515     0.0002088742910906829     0.0003829977197852709     0.0005969564770163060     0.0008269469138650365     0.0010590493382673725     0.0012911278978086683     0.0015200641084523534     0.0017267744358773918     0.0018754462011171577     0.0019300498792404687 
    0.0019861496128634809     0.0019300498792404687     0.0017774427010377736     0.0015656733581721741     0.0013317866754549996     0.0010952094226412325     0.0008584171582145012     0.0006226885202995289     0.0004018308391089590     0.0002205314736010673     0.0001012238357057707     0.0000495945231771850     0.0000235609757051898     0.0000079859457521894     -0.0000010350839851406     -0.0000058608412248593     -0.0000074076073060638     -0.0000058608412248593     -0.0000010350839851406     0.0000079859457521894     0.0000235609757051898     0.0000495945231771850     0.0001012238357057707     0.0002205314736010673     0.0004018308391089590     0.0006226885202995290     0.0008584171582145012     0.0010952094226412325     0.0013317866754549996     0.0015656733581721741     0.0017774427010377736     0.0019300498792404687     0.0019861496128634809 
    0.0020438604698237179     0.0019862239647795922     0.0018295745191558505     0.0016126143344071123     0.0013736683235966616     0.0011325283065814539     0.0008910004987354738     0.0006494491223754125     0.0004215295374779285     0.0002328244094053163     0.0001071073421243698     0.0000518343164144805     0.0000248126886717005     0.0000086909167019428     -0.0000006050890100824     -0.0000055570055506992     -0.0000071405271393407     -0.0000055570055506992     -0.0000006050890100825     0.0000086909167019428     0.0000248126886717005     0.0000518343164144805     0.0001071073421243699     0.0002328244094053164     0.0004215295374779285     0.0006494491223754125     0.0008910004987354738     0.0011325283065814539     0.0013736683235966616     0.0016126143344071121     0.0018295745191558505     0.0019862239647795922     0.0020438604698237179 
    0.0019862239647795922     0.0019301384407618086     0.0017775676632597152     0.0015658409603358148     0.0013319845637253681     0.0010954122504605213     0.0008585974199814031     0.0006228269392197980     0.0004019215594839498     0.0002205810886717806     0.0001012466726958490     0.0000496065164857469     0.0000235683543919620     0.0000079909119313542     -0.0000010313674218174     -0.0000058577342373311     -0.0000074046852422426     -0.0000058577342373311     -0.0000010313674218174     0.0000079909119313542     0.0000235683543919621     0.0000496065164857469     0.0001012466726958491     0.0002205810886717807     0.0004019215594839498     0.0006228269392197980     0.0008585974199814031     0.0010954122504605213     0.0013319845637253681     0.0015658409603358148     0.0017775676632597152     0.0019301384407618086     0.0019862239647795922 
    0.0018295745191558505     0.0017775676632597152     0.0016356820175682033     0.0014375885671350579     0.0012169800383463403     0.0009925162403359288     0.0007686698115151183     0.0005491922118513940     0.0003481078030345763     0.0001874339320898981     0.0000858162799667715     0.0000434519941454236     0.0000201150978841275     0.0000060346137330825     -0.0000022304688500078     -0.0000067060985491429     -0.0000081500363244684     -0.0000067060985491429     -0.0000022304688500077     0.0000060346137330825     0.0000201150978841275     0.0000434519941454236     0.0000858162799667715     0.0001874339320898981     0.0003481078030345763     0.0005491922118513940     0.0007686698115151183     0.0009925162403359286     0.0012169800383463403     0.0014375885671350579     0.0016356820175682028     0.0017775676632597152     0.0018295745191558505 
    0.0016126143344071123     0.0015658409603358148     0.0014375885671350579     0.0012567813825744706     0.0010531219261166690     0.0008449468038682012     0.0006398605998396554     0.0004447424666563804     0.0002731476624873664     0.0001426473614399452     0.0000662612978944878     0.0000347276608203702     0.0000151742908018667     0.0000031974637741287     -0.0000039891017171176     -0.0000079542238264579     -0.0000092455742421467     -0.0000079542238264578     -0.0000039891017171176     0.0000031974637741287     0.0000151742908018668     0.0000347276608203702     0.0000662612978944878     0.0001426473614399453     0.0002731476624873664     0.0004447424666563804     0.0006398605998396554     0.0008449468038682011     0.0010531219261166690     0.0012567813825744706     0.0014375885671350577     0.0015658409603358148     0.0016126143344071123 
    0.0013736683235966620     0.0013319845637253681     0.0012169800383463403     0.0010531219261166690     0.0008668380444870761     0.0006770361025347407     0.0004948536163730733     0.0003297109809726309     0.0001933434944143449     0.0000975141199124097     0.0000486954732439636     0.0000250760284421169     0.0000096295385729874     -0.0000000469404995269     -0.0000060246571408059     -0.0000093962793567532     -0.0000105052913057668     -0.0000093962793567533     -0.0000060246571408059     -0.0000000469404995269     0.0000096295385729874     0.0000250760284421169     0.0000486954732439636     0.0000975141199124098     0.0001933434944143450     0.0003297109809726310     0.0004948536163730733     0.0006770361025347406     0.0008668380444870761     0.0010531219261166688     0.0012169800383463403     0.0013319845637253681     0.0013736683235966620 
    0.0011325283065814539     0.0010954122504605213     0.0009925162403359286     0.0008449468038682010     0.0006770361025347405     0.0005086800511297995     0.0003536993373025808     0.0002223482559646221     0.0001230650767559844     0.0000613714182341149     0.0000335195631023865     0.0000158878879225594     0.0000042479537636171     -0.0000032636646773660     -0.0000080562111697336     -0.0000108141329704003     -0.0000117277295756731     -0.0000108141329704003     -0.0000080562111697336     -0.0000032636646773660     0.0000042479537636171     0.0000158878879225595     0.0000335195631023865     0.0000613714182341149     0.0001230650767559845     0.0002223482559646222     0.0003536993373025808     0.0005086800511297995     0.0006770361025347405     0.0008449468038682011     0.0009925162403359286     0.0010954122504605213     0.0011325283065814539 
    0.0008910004987354736     0.0008585974199814032     0.0007686698115151183     0.0006398605998396552     0.0004948536163730732     0.0003536993373025807     0.0002308544714326310     0.0001352941317414389     0.0000713174123362603     0.0000387176471737841     0.0000206511187600412     0.0000080147634602010     -0.0000004706009846311     -0.0000061352757818780     -0.0000098530266016056     -0.0000120164636989919     -0.0000127334683825429     -0.0000120164636989919     -0.0000098530266016056     -0.0000061352757818780     -0.0000004706009846310     0.0000080147634602010     0.0000206511187600412     0.0000387176471737841     0.0000713174123362603     0.0001352941317414390     0.0002308544714326311     0.0003536993373025807     0.0004948536163730732     0.0006398605998396554     0.0007686698115151185     0.0008585974199814033     0.0008910004987354736 
    0.0006494491223754126     0.0006228269392197980     0.0005491922118513940     0.0004447424666563803     0.0003297109809726310     0.0002223482559646221     0.0001352941317414389     0.0000746514036395878     0.0000408074613157684     0.0000232615837243982     0.0000105807480496902     0.0000017666914006527     -0.0000042966554447655     -0.0000084708763107155     -0.0000112509014671326     -0.0000128609113323683     -0.0000133893834459109     -0.0000128609113323682     -0.0000112509014671325     -0.0000084708763107155     -0.0000042966554447655     0.0000017666914006527     0.0000105807480496902     0.0000232615837243983     0.0000408074613157684     0.0000746514036395879     0.0001352941317414390     0.0002223482559646222     0.0003297109809726310     0.0004447424666563803     0.0005491922118513940     0.0006228269392197980     0.0006494491223754126 
    0.0004215295374779285     0.0004019215594839498     0.0003481078030345764     0.0002731476624873664     0.0001933434944143449     0.0001230650767559844     0.0000713174123362603     0.0000408074613157684     0.0000240185525408099     0.0000117778457890545     0.0000031321650873469     -0.0000029216866398890     -0.0000071899185886286     -0.0000101761225964656     -0.0000121481289338176     -0.0000132601271621993     -0.0000136168622387519     -0.0000132601271621993     -0.0000121481289338176     -0.0000101761225964656     -0.0000071899185886286     -0.0000029216866398890     0.0000031321650873469     0.0000117778457890545     0.0000240185525408099     0.0000408074613157684     0.0000713174123362603     0.0001230650767559845     0.0001933434944143449     0.0002731476624873664     0.0003481078030345764     0.0004019215594839498     0.0004215295374779285 
    0.0002328244094053163     0.0002205810886717807     0.0001874339320898981     0.0001426473614399452     0.0000975141199124097     0.0000613714182341148     0.0000387176471737841     0.0000232615837243983     0.0000117778457890545     0.0000035767600067179     -0.0000021990595106156     -0.0000062942236394061     -0.0000092098694903589     -0.0000112240107067381     -0.0000125004618433518     -0.0000131809199988016     -0.0000133902088845101     -0.0000131809199988016     -0.0000125004618433518     -0.0000112240107067382     -0.0000092098694903589     -0.0000062942236394061     -0.0000021990595106156     0.0000035767600067179     0.0000117778457890545     0.0000232615837243983     0.0000387176471737841     0.0000613714182341148     0.0000975141199124097     0.0001426473614399453     0.0001874339320898981     0.0002205810886717807     0.0002328244094053163 
    0.0001071073421243699     0.0001012466726958491     0.0000858162799667715     0.0000662612978944878     0.0000486954732439636     0.0000335195631023864     0.0000206511187600412     0.0000105807480496902     0.0000031321650873469     -0.0000021990595106156     -0.0000059700175024402     -0.0000086275910607425     -0.0000104611606084692     -0.0000116466516251802     -0.0000123253744979213     -0.0000126453153934488     -0.0000127346725043444     -0.0000126453153934488     -0.0000123253744979213     -0.0000116466516251802     -0.0000104611606084692     -0.0000086275910607425     -0.0000059700175024402     -0.0000021990595106156     0.0000031321650873469     0.0000105807480496902     0.0000206511187600412     0.0000335195631023865     0.0000486954732439636     0.0000662612978944878     0.0000858162799667715     0.0001012466726958491     0.0001071073421243699 
    0.0000518343164144805     0.0000496065164857469     0.0000434519941454236     0.0000347276608203701     0.0000250760284421169     0.0000158878879225594     0.0000080147634602010     0.0000017666914006527     -0.0000029216866398890     -0.0000062942236394061     -0.0000086275910607425     -0.0000101593209969040     -0.0000110769959769364     -0.0000115414225443892     -0.0000117102357309436     -0.0000117346284183993     -0.0000117285476324796     -0.0000117346284183993     -0.0000117102357309436     -0.0000115414225443892     -0.0000110769959769364     -0.0000101593209969040     -0.0000086275910607425     -0.0000062942236394061     -0.0000029216866398890     0.0000017666914006527     0.0000080147634602010     0.0000158878879225594     0.0000250760284421169     0.0000347276608203701     0.0000434519941454236     0.0000496065164857469     0.0000518343164144805 
    0.0000248126886717005     0.0000235683543919621     0.0000201150978841275     0.0000151742908018668     0.0000096295385729874     0.0000042479537636171     -0.0000004706009846310     -0.0000042966554447655     -0.0000071899185886286     -0.0000092098694903589     -0.0000104611606084692     -0.0000110769959769364     -0.0000112189407637734     -0.0000110695591184639     -0.0000108097174775443     -0.0000105893138043300     -0.0000105048744946547     -0.0000105893138043300     -0.0000108097174775443     -0.0000110695591184639     -0.0000112189407637734     -0.0000110769959769364     -0.0000104611606084692     -0.0000092098694903589     -0.0000071899185886286     -0.0000042966554447655     -0.0000004706009846311     0.0000042479537636171     0.0000096295385729874     0.0000151742908018668     0.0000201150978841275     0.0000235683543919621     0.0000248126886717005 
    0.0000086909167019428     0.0000079909119313543     0.0000060346137330825     0.0000031974637741287     -0.0000000469404995269     -0.0000032636646773660     -0.0000061352757818780     -0.0000084708763107156     -0.0000101761225964657     -0.0000112240107067381     -0.0000116466516251802     -0.0000115414225443892     -0.0000110695591184639     -0.0000104311248663970     -0.0000098220653265905     -0.0000093954602844092     -0.0000092432816409620     -0.0000093954602844092     -0.0000098220653265905     -0.0000104311248663970     -0.0000110695591184639     -0.0000115414225443892     -0.0000116466516251802     -0.0000112240107067382     -0.0000101761225964657     -0.0000084708763107156     -0.0000061352757818780     -0.0000032636646773661     -0.0000000469404995269     0.0000031974637741287     0.0000060346137330825     0.0000079909119313542     0.0000086909167019428 
    -0.0000006050890100824     -0.0000010313674218174     -0.0000022304688500078     -0.0000039891017171176     -0.0000060246571408059     -0.0000080562111697336     -0.0000098530266016056     -0.0000112509014671326     -0.0000121481289338176     -0.0000125004618433517     -0.0000123253744979213     -0.0000117102357309436     -0.0000108097174775443     -0.0000098220653265905     -0.0000089488511343057     -0.0000083552773763751     -0.0000081457058240255     -0.0000083552773763751     -0.0000089488511343057     -0.0000098220653265904     -0.0000108097174775443     -0.0000117102357309436     -0.0000123253744979213     -0.0000125004618433518     -0.0000121481289338176     -0.0000112509014671326     -0.0000098530266016057     -0.0000080562111697336     -0.0000060246571408059     -0.0000039891017171176     -0.0000022304688500078     -0.0000010313674218174     -0.0000006050890100824 
    -0.0000055570055506992     -0.0000058577342373310     -0.0000067060985491429     -0.0000079542238264578     -0.0000093962793567532     -0.0000108141329704003     -0.0000120164636989919     -0.0000128609113323682     -0.0000132601271621993     -0.0000131809199988015     -0.0000126453153934487     -0.0000117346284183993     -0.0000105893138043300     -0.0000093954602844092     -0.0000083552773763751     -0.0000076487534938812     -0.0000073987728909155     -0.0000076487534938812     -0.0000083552773763751     -0.0000093954602844092     -0.0000105893138043300     -0.0000117346284183993     -0.0000126453153934487     -0.0000131809199988015     -0.0000132601271621993     -0.0000128609113323682     -0.0000120164636989919     -0.0000108141329704003     -0.0000093962793567532     -0.0000079542238264578     -0.0000067060985491429     -0.0000058577342373310     -0.0000055570055506992 
    -0.0000071405271393406     -0.0000074046852422425     -0.0000081500363244684     -0.0000092455742421467     -0.0000105052913057668     -0.0000117277295756731     -0.0000127334683825429     -0.0000133893834459109     -0.0000136168622387520     -0.0000133902088845101     -0.0000127346725043444     -0.0000117285476324796     -0.0000105048744946548     -0.0000092432816409620     -0.0000081457058240255     -0.0000073987728909155     -0.0000071340178212307     -0.0000073987728909155     -0.0000081457058240255     -0.0000092432816409619     -0.0000105048744946548     -0.0000117285476324796     -0.0000127346725043444     -0.0000133902088845101     -0.0000136168622387520     -0.0000133893834459109     -0.0000127334683825429     -0.0000117277295756731     -0.0000105052913057668     -0.0000092455742421467     -0.0000081500363244684     -0.0000074046852422425     -0.0000071405271393406 
    -0.0000055570055506992     -0.0000058577342373311     -0.0000067060985491430     -0.0000079542238264578     -0.0000093962793567533     -0.0000108141329704003     -0.0000120164636989919     -0.0000128609113323683     -0.0000132601271621993     -0.0000131809199988016     -0.0000126453153934487     -0.0000117346284183993     -0.0000105893138043300     -0.0000093954602844092     -0.0000083552773763751     -0.0000076487534938812     -0.0000073987728909155     -0.0000076487534938811     -0.0000083552773763751     -0.0000093954602844092     -0.0000105893138043300     -0.0000117346284183992     -0.0000126453153934487     -0.0000131809199988015     -0.0000132601271621993     -0.0000128609113323682     -0.0000120164636989919     -0.0000108141329704003     -0.0000093962793567533     -0.0000079542238264578     -0.0000067060985491430     -0.0000058577342373311     -0.0000055570055506992 
    -0.0000006050890100824     -0.0000010313674218174     -0.0000022304688500078     -0.0000039891017171176     -0.0000060246571408059     -0.0000080562111697336     -0.0000098530266016056     -0.0000112509014671326     -0.0000121481289338176     -0.0000125004618433518     -0.0000123253744979213     -0.0000117102357309436     -0.0000108097174775443     -0.0000098220653265905     -0.0000089488511343057     -0.0000083552773763751     -0.0000081457058240255     -0.0000083552773763751     -0.0000089488511343057     -0.0000098220653265904     -0.0000108097174775443     -0.0000117102357309435     -0.0000123253744979212     -0.0000125004618433517     -0.0000121481289338176     -0.0000112509014671326     -0.0000098530266016056     -0.0000080562111697336     -0.0000060246571408059     -0.0000039891017171176     -0.0000022304688500078     -0.0000010313674218174     -0.0000006050890100824 
    0.0000086909167019428     0.0000079909119313542     0.0000060346137330825     0.0000031974637741287     -0.0000000469404995269     -0.0000032636646773661     -0.0000061352757818781     -0.0000084708763107156     -0.0000101761225964657     -0.0000112240107067382     -0.0000116466516251802     -0.0000115414225443892     -0.0000110695591184639     -0.0000104311248663970     -0.0000098220653265905     -0.0000093954602844093     -0.0000092432816409620     -0.0000093954602844093     -0.0000098220653265905     -0.0000104311248663970     -0.0000110695591184639     -0.0000115414225443892     -0.0000116466516251802     -0.0000112240107067381     -0.0000101761225964657     -0.0000084708763107156     -0.0000061352757818780     -0.0000032636646773660     -0.0000000469404995269     0.0000031974637741287     0.0000060346137330825     0.0000079909119313542     0.0000086909167019428 
    0.0000248126886717005     0.0000235683543919621     0.0000201150978841275     0.0000151742908018668     0.0000096295385729874     0.0000042479537636171     -0.0000004706009846311     -0.0000042966554447655     -0.0000071899185886287     -0.0000092098694903589     -0.0000104611606084692     -0.0000110769959769365     -0.0000112189407637734     -0.0000110695591184639     -0.0000108097174775443     -0.0000105893138043301     -0.0000105048744946548     -0.0000105893138043300     -0.0000108097174775443     -0.0000110695591184639     -0.0000112189407637734     -0.0000110769959769364     -0.0000104611606084692     -0.0000092098694903589     -0.0000071899185886286     -0.0000042966554447655     -0.0000004706009846311     0.0000042479537636171     0.0000096295385729874     0.0000151742908018668     0.0000201150978841275     0.0000235683543919621     0.0000248126886717005 
    0.0000518343164144805     0.0000496065164857469     0.0000434519941454236     0.0000347276608203701     0.0000250760284421169     0.0000158878879225594     0.0000080147634602010     0.0000017666914006526     -0.0000029216866398890     -0.0000062942236394061     -0.0000086275910607425     -0.0000101593209969040     -0.0000110769959769364     -0.0000115414225443892     -0.0000117102357309436     -0.0000117346284183993     -0.0000117285476324796     -0.0000117346284183993     -0.0000117102357309436     -0.0000115414225443892     -0.0000110769959769364     -0.0000101593209969040     -0.0000086275910607425     -0.0000062942236394061     -0.0000029216866398889     0.0000017666914006527     0.0000080147634602010     0.0000158878879225595     0.0000250760284421169     0.0000347276608203702     0.0000434519941454236     0.0000496065164857469     0.0000518343164144805 
    0.0001071073421243699     0.0001012466726958491     0.0000858162799667715     0.0000662612978944877     0.0000486954732439636     0.0000335195631023864     0.0000206511187600412     0.0000105807480496902     0.0000031321650873469     -0.0000021990595106156     -0.0000059700175024402     -0.0000086275910607425     -0.0000104611606084692     -0.0000116466516251802     -0.0000123253744979213     -0.0000126453153934488     -0.0000127346725043444     -0.0000126453153934488     -0.0000123253744979213     -0.0000116466516251802     -0.0000104611606084692     -0.0000086275910607425     -0.0000059700175024402     -0.0000021990595106156     0.0000031321650873469     0.0000105807480496902     0.0000206511187600412     0.0000335195631023865     0.0000486954732439636     0.0000662612978944877     0.0000858162799667715     0.0001012466726958491     0.0001071073421243699 
    0.0002328244094053163     0.0002205810886717807     0.0001874339320898981     0.0001426473614399452     0.0000975141199124097     0.0000613714182341148     0.0000387176471737841     0.0000232615837243983     0.0000117778457890545     0.0000035767600067179     -0.0000021990595106156     -0.0000062942236394061     -0.0000092098694903589     -0.0000112240107067381     -0.0000125004618433518     -0.0000131809199988016     -0.0000133902088845101     -0.0000131809199988016     -0.0000125004618433517     -0.0000112240107067381     -0.0000092098694903589     -0.0000062942236394061     -0.0000021990595106156     0.0000035767600067179     0.0000117778457890545     0.0000232615837243983     0.0000387176471737841     0.0000613714182341148     0.0000975141199124097     0.0001426473614399452     0.0001874339320898981     0.0002205810886717806     0.0002328244094053163 
    0.0004215295374779285     0.0004019215594839498     0.0003481078030345763     0.0002731476624873664     0.0001933434944143449     0.0001230650767559844     0.0000713174123362603     0.0000408074613157684     0.0000240185525408099     0.0000117778457890545     0.0000031321650873469     -0.0000029216866398889     -0.0000071899185886286     -0.0000101761225964656     -0.0000121481289338176     -0.0000132601271621993     -0.0000136168622387519     -0.0000132601271621993     -0.0000121481289338176     -0.0000101761225964656     -0.0000071899185886286     -0.0000029216866398890     0.0000031321650873469     0.0000117778457890545     0.0000240185525408099     0.0000408074613157684     0.0000713174123362604     0.0001230650767559845     0.0001933434944143450     0.0002731476624873664     0.0003481078030345764     0.0004019215594839498     0.0004215295374779285 
    0.0006494491223754126     0.0006228269392197980     0.0005491922118513940     0.0004447424666563802     0.0003297109809726309     0.0002223482559646221     0.0001352941317414389     0.0000746514036395878     0.0000408074613157684     0.0000232615837243982     0.0000105807480496902     0.0000017666914006527     -0.0000042966554447655     -0.0000084708763107155     -0.0000112509014671326     -0.0000128609113323683     -0.0000133893834459109     -0.0000128609113323683     -0.0000112509014671326     -0.0000084708763107156     -0.0000042966554447655     0.0000017666914006527     0.0000105807480496902     0.0000232615837243982     0.0000408074613157684     0.0000746514036395879     0.0001352941317414390     0.0002223482559646222     0.0003297109809726310     0.0004447424666563803     0.0005491922118513940     0.0006228269392197980     0.0006494491223754126 
    0.0008910004987354736     0.0008585974199814033     0.0007686698115151185     0.0006398605998396552     0.0004948536163730732     0.0003536993373025807     0.0002308544714326311     0.0001352941317414390     0.0000713174123362603     0.0000387176471737841     0.0000206511187600412     0.0000080147634602010     -0.0000004706009846311     -0.0000061352757818780     -0.0000098530266016056     -0.0000120164636989919     -0.0000127334683825429     -0.0000120164636989919     -0.0000098530266016056     -0.0000061352757818780     -0.0000004706009846310     0.0000080147634602010     0.0000206511187600412     0.0000387176471737841     0.0000713174123362603     0.0001352941317414390     0.0002308544714326311     0.0003536993373025808     0.0004948536163730733     0.0006398605998396554     0.0007686698115151185     0.0008585974199814033     0.0008910004987354736 
    0.0011325283065814539     0.0010954122504605213     0.0009925162403359286     0.0008449468038682010     0.0006770361025347405     0.0005086800511297994     0.0003536993373025807     0.0002223482559646221     0.0001230650767559844     0.0000613714182341149     0.0000335195631023865     0.0000158878879225594     0.0000042479537636171     -0.0000032636646773660     -0.0000080562111697335     -0.0000108141329704003     -0.0000117277295756731     -0.0000108141329704003     -0.0000080562111697336     -0.0000032636646773660     0.0000042479537636171     0.0000158878879225595     0.0000335195631023865     0.0000613714182341149     0.0001230650767559844     0.0002223482559646222     0.0003536993373025808     0.0005086800511297995     0.0006770361025347405     0.0008449468038682010     0.0009925162403359286     0.0010954122504605213     0.0011325283065814539 
    0.0013736683235966620     0.0013319845637253681     0.0012169800383463403     0.0010531219261166688     0.0008668380444870761     0.0006770361025347406     0.0004948536163730733     0.0003297109809726310     0.0001933434944143449     0.0000975141199124097     0.0000486954732439636     0.0000250760284421169     0.0000096295385729874     -0.0000000469404995269     -0.0000060246571408058     -0.0000093962793567532     -0.0000105052913057668     -0.0000093962793567533     -0.0000060246571408059     -0.0000000469404995269     0.0000096295385729874     0.0000250760284421169     0.0000486954732439636     0.0000975141199124097     0.0001933434944143449     0.0003297109809726310     0.0004948536163730733     0.0006770361025347407     0.0008668380444870761     0.0010531219261166690     0.0012169800383463403     0.0013319845637253681     0.0013736683235966620 
    0.0016126143344071123     0.0015658409603358148     0.0014375885671350579     0.0012567813825744706     0.0010531219261166690     0.0008449468038682012     0.0006398605998396554     0.0004447424666563804     0.0002731476624873664     0.0001426473614399452     0.0000662612978944878     0.0000347276608203702     0.0000151742908018668     0.0000031974637741287     -0.0000039891017171176     -0.0000079542238264578     -0.0000092455742421467     -0.0000079542238264578     -0.0000039891017171176     0.0000031974637741287     0.0000151742908018668     0.0000347276608203702     0.0000662612978944878     0.0001426473614399453     0.0002731476624873664     0.0004447424666563804     0.0006398605998396554     0.0008449468038682011     0.0010531219261166690     0.0012567813825744706     0.0014375885671350579     0.0015658409603358148     0.0016126143344071123 
    0.0018295745191558505     0.0017775676632597152     0.0016356820175682033     0.0014375885671350579     0.0012169800383463403     0.0009925162403359288     0.0007686698115151183     0.0005491922118513940     0.0003481078030345763     0.0001874339320898981     0.0000858162799667715     0.0000434519941454236     0.0000201150978841275     0.0000060346137330825     -0.0000022304688500078     -0.0000067060985491430     -0.0000081500363244685     -0.0000067060985491430     -0.0000022304688500078     0.0000060346137330825     0.0000201150978841275     0.0000434519941454236     0.0000858162799667715     0.0001874339320898981     0.0003481078030345763     0.0005491922118513940     0.0007686698115151183     0.0009925162403359286     0.0012169800383463403     0.0014375885671350577     0.0016356820175682028     0.0017775676632597152     0.0018295745191558505 
    0.0019862239647795922     0.0019301384407618086     0.0017775676632597152     0.0015658409603358148     0.0013319845637253681     0.0010954122504605213     0.0008585974199814031     0.0006228269392197980     0.0004019215594839498     0.0002205810886717806     0.0001012466726958491     0.0000496065164857469     0.0000235683543919620     0.0000079909119313542     -0.0000010313674218175     -0.0000058577342373311     -0.0000074046852422426     -0.0000058577342373311     -0.0000010313674218174     0.0000079909119313542     0.0000235683543919620     0.0000496065164857469     0.0001012466726958491     0.0002205810886717807     0.0004019215594839498     0.0006228269392197980     0.0008585974199814031     0.0010954122504605213     0.0013319845637253681     0.0015658409603358148     0.0017775676632597152     0.0019301384407618086     0.0019862239647795922 
    0.0020438604698237179     0.0019862239647795922     0.0018295745191558505     0.0016126143344071123     0.0013736683235966616     0.0011325283065814539     0.0008910004987354738     0.0006494491223754125     0.0004215295374779285     0.0002328244094053163     0.0001071073421243698     0.0000518343164144805     0.0000248126886717005     0.0000086909167019428     -0.0000006050890100824     -0.0000055570055506992     -0.0000071405271393407     -0.0000055570055506992     -0.0000006050890100825     0.0000086909167019428     0.0000248126886717005     0.0000518343164144805     0.0001071073421243699     0.0002328244094053164     0.0004215295374779285     0.0006494491223754125     0.0008910004987354738     0.0011325283065814539     0.0013736683235966616     0.0016126143344071121     0.0018295745191558505     0.0019862239647795922     0.0020438604698237179 
  END_DATAGRID_3D
END_BLOCK_DATAGRID_3D
